 &control
    calculation = 'scf',
    prefix='Si',
    pseudo_dir = './',
    wf_collect=.true.,
    verbosity ='high'
 /
 &system
    ibrav=  2,
    celldm(1) =10.183, celldm(2) =0, celldm(3) =0, force_symmorphic=.true.
    nat=  2, ntyp= 1, ecutwfc = 15, nbnd = 8
 /
 &electrons
    diago_full_acc=.TRUE.,
    conv_thr = 1.0d-10
 /
ATOMIC_SPECIES
 Si 28.086 Si.vbc.UPF
ATOMIC_POSITIONS (alat)
 Si 0.0000000000 0.0000000000  0.0000000000
 Si 0.2500000000 0.2500000000  0.2500000000
K_POINTS (automatic)
 4 4 4 1 1 1
