 &control
    calculation = 'nscf',
    prefix='Si_shift1_bse_nscf',
    pseudo_dir = './',
    wf_collect=.true.,
    verbosity ='high'
 /
 &system
    ibrav=  2,
    celldm(1) =10.183, celldm(2) =0, celldm(3) =0, force_symmorphic=.true.
    nat=  2, ntyp= 1, ecutwfc = 15, nbnd = 32, nosym=.true., noinv=.true.
 /
 &electrons
    diago_full_acc=.TRUE.,
    conv_thr = 1.0d-10
 /
ATOMIC_SPECIES
 Si 28.086 Si.vbc.UPF
ATOMIC_POSITIONS (alat)
 Si 0.0000000000 0.0000000000  0.0000000000
 Si 0.2500000000 0.2500000000  0.2500000000
K_POINTS {alat}
 256
-0.124919  0.125000  0.125000  1.000000
-0.374919  0.375000 -0.125000  1.000000
 0.375081 -0.375000  0.625000  1.000000
 0.125081 -0.125000  0.375000  1.000000
-0.124919  0.625000  0.125000  1.000000
 0.625081 -0.125000  0.875000  1.000000
 0.375081  0.125000  0.625000  1.000000
-0.124919 -0.875000  0.125000  1.000000
-0.374919  0.375000  0.375000  1.000000
 0.375081 -0.375000  1.125000  1.000000
 0.375081  0.375000  0.125000  1.000000
-0.374919 -0.375000  0.125000  1.000000
 0.375081 -0.125000 -0.375000  1.000000
-0.374919 -0.125000  0.375000  1.000000
 0.375081  0.125000  0.375000  1.000000
-0.374919  0.125000 -0.375000  1.000000
-0.124919 -0.375000  0.375000  1.000000
-0.124919  0.375000 -0.375000  1.000000
 0.125081  0.375000  0.375000  1.000000
 0.125081 -0.375000 -0.375000  1.000000
 0.375081 -0.375000  0.125000  1.000000
-0.374919  0.375000  0.125000  1.000000
-0.374919 -0.375000 -0.125000  1.000000
 0.375081  0.375000 -0.125000  1.000000
-0.374919  0.125000  0.375000  1.000000
 0.375081  0.125000 -0.375000  1.000000
-0.374919 -0.125000 -0.375000  1.000000
 0.375081 -0.125000  0.375000  1.000000
 0.125081  0.375000 -0.375000  1.000000
 0.125081 -0.375000  0.375000  1.000000
-0.124919 -0.375000 -0.375000  1.000000
-0.124919  0.375000  0.375000  1.000000
 0.125081  0.125000 -0.125000  1.000000
-0.374919  0.375000  0.625000  1.000000
-0.374919 -0.375000 -0.625000  1.000000
 0.375081  0.375000 -0.625000  1.000000
-0.374919  0.625000  0.375000  1.000000
 0.375081  0.625000 -0.375000  1.000000
-0.374919 -0.625000 -0.375000  1.000000
 0.375081 -0.625000  0.375000  1.000000
 0.625081  0.375000 -0.375000  1.000000
 0.625081 -0.375000  0.375000  1.000000
-0.624919 -0.375000 -0.375000  1.000000
-0.624919  0.375000  0.375000  1.000000
-0.374919  0.375000 -0.625000  1.000000
 0.375081 -0.375000 -0.625000  1.000000
 0.375081  0.375000  0.625000  1.000000
-0.374919 -0.375000  0.625000  1.000000
 0.375081 -0.625000 -0.375000  1.000000
-0.374919 -0.625000  0.375000  1.000000
 0.375081  0.625000  0.375000  1.000000
-0.374919  0.625000 -0.375000  1.000000
-0.624919 -0.375000  0.375000  1.000000
-0.624919  0.375000 -0.375000  1.000000
 0.625081  0.375000  0.375000  1.000000
 0.625081 -0.375000 -0.375000  1.000000
-0.124919 -0.125000 -0.125000  1.000000
-0.124919  0.125000  0.375000  1.000000
-0.124919 -0.125000 -0.375000  1.000000
 0.125081  0.125000 -0.375000  1.000000
-0.124919  0.375000  0.125000  1.000000
 0.125081  0.375000 -0.125000  1.000000
-0.124919 -0.375000 -0.125000  1.000000
 0.125081 -0.375000  0.125000  1.000000
 0.375081  0.125000 -0.125000  1.000000
 0.375081 -0.125000  0.125000  1.000000
-0.374919 -0.125000 -0.125000  1.000000
-0.374919  0.125000  0.125000  1.000000
-0.124919  0.125000 -0.375000  1.000000
 0.125081 -0.125000 -0.375000  1.000000
 0.125081  0.125000  0.375000  1.000000
-0.124919 -0.125000  0.375000  1.000000
 0.125081 -0.375000 -0.125000  1.000000
-0.124919 -0.375000  0.125000  1.000000
 0.125081  0.375000  0.125000  1.000000
-0.124919  0.375000 -0.125000  1.000000
-0.374919 -0.125000  0.125000  1.000000
-0.374919  0.125000 -0.125000  1.000000
 0.375081  0.125000  0.125000  1.000000
 0.375081 -0.125000 -0.125000  1.000000
 0.125081 -0.125000 -0.125000  1.000000
 0.125081 -0.625000  0.125000  1.000000
 0.125081  0.625000 -0.125000  1.000000
-0.124919 -0.625000 -0.125000  1.000000
 0.625081  0.125000 -0.125000  1.000000
-0.624919  0.125000  0.125000  1.000000
 0.625081 -0.125000  0.125000  1.000000
-0.624919 -0.125000 -0.125000  1.000000
 0.125081 -0.125000  0.625000  1.000000
 0.125081  0.125000 -0.625000  1.000000
-0.124919  0.125000  0.625000  1.000000
-0.124919 -0.125000 -0.625000  1.000000
 0.125081 -0.625000 -0.125000  1.000000
-0.124919  0.625000 -0.125000  1.000000
-0.124919 -0.625000  0.125000  1.000000
 0.125081  0.625000  0.125000  1.000000
-0.624919 -0.125000  0.125000  1.000000
 0.625081 -0.125000 -0.125000  1.000000
-0.624919  0.125000 -0.125000  1.000000
 0.625081  0.125000  0.125000  1.000000
-0.124919  0.125000 -0.625000  1.000000
-0.124919 -0.125000  0.625000  1.000000
 0.125081 -0.125000 -0.625000  1.000000
 0.125081  0.125000  0.625000  1.000000
-0.124919  0.125000 -0.125000  1.000000
-0.624919  0.125000  0.875000  1.000000
-0.624919 -0.125000 -0.875000  1.000000
 0.625081  0.125000 -0.875000  1.000000
-0.124919  0.875000  0.625000  1.000000
 0.125081  0.875000 -0.625000  1.000000
-0.124919 -0.875000 -0.625000  1.000000
 0.125081 -0.875000  0.625000  1.000000
 0.875081  0.625000 -0.125000  1.000000
 0.875081 -0.625000  0.125000  1.000000
-0.874919 -0.625000 -0.125000  1.000000
-0.874919  0.625000  0.125000  1.000000
 0.125081 -0.625000  0.875000  1.000000
-0.124919  0.625000  0.875000  1.000000
 0.125081  0.625000 -0.875000  1.000000
-0.124919 -0.625000 -0.875000  1.000000
-0.874919 -0.125000 -0.625000  1.000000
 0.875081 -0.125000  0.625000  1.000000
-0.874919  0.125000  0.625000  1.000000
 0.875081  0.125000 -0.625000  1.000000
 0.625081 -0.875000  0.125000  1.000000
 0.625081  0.875000 -0.125000  1.000000
-0.624919 -0.875000 -0.125000  1.000000
-0.624919  0.875000  0.125000  1.000000
-0.624919  0.125000 -0.875000  1.000000
 0.625081 -0.125000 -0.875000  1.000000
 0.625081  0.125000  0.875000  1.000000
-0.624919 -0.125000  0.875000  1.000000
 0.125081 -0.875000 -0.625000  1.000000
-0.124919 -0.875000  0.625000  1.000000
 0.125081  0.875000  0.625000  1.000000
-0.124919  0.875000 -0.625000  1.000000
-0.874919 -0.625000  0.125000  1.000000
-0.874919  0.625000 -0.125000  1.000000
 0.875081  0.625000  0.125000  1.000000
 0.875081 -0.625000 -0.125000  1.000000
-0.124919  0.625000 -0.875000  1.000000
 0.125081 -0.625000 -0.875000  1.000000
-0.124919 -0.625000  0.875000  1.000000
 0.125081  0.625000  0.875000  1.000000
 0.875081  0.125000  0.625000  1.000000
-0.874919  0.125000 -0.625000  1.000000
 0.875081 -0.125000 -0.625000  1.000000
-0.874919 -0.125000  0.625000  1.000000
-0.624919  0.875000 -0.125000  1.000000
-0.624919 -0.875000  0.125000  1.000000
 0.625081  0.875000  0.125000  1.000000
 0.625081 -0.875000 -0.125000  1.000000
-0.124919 -0.125000  0.125000  1.000000
-0.374919 -0.125000  0.625000  1.000000
-0.374919  0.125000 -0.625000  1.000000
 0.375081 -0.125000 -0.625000  1.000000
 0.125081  0.625000  0.375000  1.000000
-0.124919  0.625000 -0.375000  1.000000
 0.125081 -0.625000 -0.375000  1.000000
-0.124919 -0.625000  0.375000  1.000000
 0.625081  0.375000  0.125000  1.000000
 0.625081 -0.375000 -0.125000  1.000000
-0.624919 -0.375000  0.125000  1.000000
-0.624919  0.375000 -0.125000  1.000000
-0.124919 -0.375000  0.625000  1.000000
 0.125081  0.375000  0.625000  1.000000
-0.124919  0.375000 -0.625000  1.000000
 0.125081 -0.375000 -0.625000  1.000000
-0.624919  0.125000 -0.375000  1.000000
 0.625081  0.125000  0.375000  1.000000
-0.624919 -0.125000  0.375000  1.000000
 0.625081 -0.125000 -0.375000  1.000000
 0.375081 -0.625000 -0.125000  1.000000
 0.375081  0.625000  0.125000  1.000000
-0.374919 -0.625000  0.125000  1.000000
-0.374919  0.625000 -0.125000  1.000000
-0.374919 -0.125000 -0.625000  1.000000
 0.375081  0.125000 -0.625000  1.000000
 0.375081 -0.125000  0.625000  1.000000
-0.374919  0.125000  0.625000  1.000000
-0.124919 -0.625000 -0.375000  1.000000
 0.125081 -0.625000  0.375000  1.000000
-0.124919  0.625000  0.375000  1.000000
 0.125081  0.625000 -0.375000  1.000000
-0.624919 -0.375000 -0.125000  1.000000
-0.624919  0.375000  0.125000  1.000000
 0.625081  0.375000 -0.125000  1.000000
 0.625081 -0.375000  0.125000  1.000000
 0.125081  0.375000 -0.625000  1.000000
-0.124919 -0.375000 -0.625000  1.000000
 0.125081 -0.375000  0.625000  1.000000
-0.124919  0.375000  0.625000  1.000000
 0.625081 -0.125000  0.375000  1.000000
-0.624919 -0.125000 -0.375000  1.000000
 0.625081  0.125000 -0.375000  1.000000
-0.624919  0.125000  0.375000  1.000000
-0.374919  0.625000  0.125000  1.000000
-0.374919 -0.625000 -0.125000  1.000000
 0.375081  0.625000 -0.125000  1.000000
 0.375081 -0.625000  0.125000  1.000000
 0.125081  0.125000  0.125000  1.000000
 0.125081  0.875000  0.125000  1.000000
 0.125081 -0.875000 -0.125000  1.000000
-0.124919  0.875000 -0.125000  1.000000
-0.874919  0.125000 -0.125000  1.000000
 0.875081  0.125000  0.125000  1.000000
-0.874919 -0.125000  0.125000  1.000000
 0.875081 -0.125000 -0.125000  1.000000
 0.125081 -0.125000 -0.875000  1.000000
 0.125081  0.125000  0.875000  1.000000
-0.124919  0.125000 -0.875000  1.000000
-0.124919 -0.125000  0.875000  1.000000
 0.125081  0.875000 -0.125000  1.000000
-0.124919 -0.875000 -0.125000  1.000000
-0.124919  0.875000  0.125000  1.000000
 0.125081 -0.875000  0.125000  1.000000
 0.875081 -0.125000  0.125000  1.000000
-0.874919 -0.125000 -0.125000  1.000000
 0.875081  0.125000 -0.125000  1.000000
-0.874919  0.125000  0.125000  1.000000
-0.124919  0.125000  0.875000  1.000000
-0.124919 -0.125000 -0.875000  1.000000
 0.125081 -0.125000  0.875000  1.000000
 0.125081  0.125000 -0.875000  1.000000
 0.125081 -0.125000  0.125000  1.000000
 0.375081 -0.375000  0.375000  1.000000
 0.375081  0.375000 -0.375000  1.000000
-0.374919 -0.375000 -0.375000  1.000000
 0.375081 -0.375000 -0.375000  1.000000
-0.374919  0.375000 -0.375000  1.000000
-0.374919 -0.375000  0.375000  1.000000
 0.375081  0.375000  0.375000  1.000000
 0.375081 -0.375000 -0.125000  1.000000
-0.374919  0.375000  1.125000  1.000000
-0.374919 -0.375000 -1.125000  1.000000
 0.375081  0.375000 -1.125000  1.000000
-0.374919  1.125000  0.375000  1.000000
 0.375081  1.125000 -0.375000  1.000000
-0.374919 -1.125000 -0.375000  1.000000
 0.375081 -1.125000  0.375000  1.000000
 1.125081  0.375000 -0.375000  1.000000
 1.125081 -0.375000  0.375000  1.000000
-1.124919 -0.375000 -0.375000  1.000000
-1.124919  0.375000  0.375000  1.000000
-0.374919  0.375000 -1.125000  1.000000
 0.375081 -0.375000 -1.125000  1.000000
 0.375081  0.375000  1.125000  1.000000
-0.374919 -0.375000  1.125000  1.000000
 0.375081 -1.125000 -0.375000  1.000000
-0.374919 -1.125000  0.375000  1.000000
 0.375081  1.125000  0.375000  1.000000
-0.374919  1.125000 -0.375000  1.000000
-1.124919 -0.375000  0.375000  1.000000
-1.124919  0.375000 -0.375000  1.000000
 1.125081  0.375000  0.375000  1.000000
 1.125081 -0.375000 -0.375000  1.000000

