 &CONTROL
    calculation = 'scf',
    restart_mode='from_scratch',
    prefix='cobalt',
    pseudo_dir = './'
    wf_collect = .TRUE.
    verbosity = "high"
    outdir = "./"
 /
 &SYSTEM
      ibrav=4,
      celldm(1)=4.587600000000
      celldm(3)=1.63299316185545206546,    ! this value is the interlayer
                                           ! distance in the tight_binding.slab
                                           ! code multiplied by 2, 2 sqrt(6)/3
      nat=2,
      ntyp=1,
      ecutwfc=75.0,
      occupations='smearing',
      smearing='gaussian',
      degauss=0.010,
      nspin=2,
      starting_magnetization(1) = 0.5,
      !force_symmorphic=.true.
 /
 &ELECTRONS
    electron_maxstep = 100,
    conv_thr =  1.0d-8,
    mixing_beta = 0.3,
 /
ATOMIC_SPECIES
Co   58.933     27_Co_OVwfc5.UPF
ATOMIC_POSITIONS (crystal)
Co       0.000000000   0.000000000   0.000000000
Co       0.333333333   0.666666667   0.500000000
K_POINTS (automatic)
16 16 12   0 0 0

