phonons
&inputph
  amass(1)=183.84,
  amass(2)=78.97,
   prefix = 'wse2',
   tr2_ph =  1.0d-3 ,
   fildyn = "wse2.dyn" ,
   fildvscf =  "dvscf" ,
   iverbosity =  1 ,
   ldisp = .TRUE,
   trans = .TRUE.,
   qplot = .FALSE.,
   nq1=6,
   nq2=6,
   nq3=1,
   electron_phonon='yambo',
/
