ndtset 2

nstep 100
kptopt1  1        # Option for the automatic generation of k points
nshiftk 1
shiftk  0 0 0
ngkpt1 12 12 1
enunit 1
prteig 1

prtvol1 3
toldfe1 1.0d-7
prtden1 1
irdden1 1
irdwfk1 1

symmorphi2 0
iscf2    -2
kptopt2  1        # Option for the automatic generation of k points
nband2  400
nbandkss2 -1
kssform2 3
tolwfr2  1.0d-7
ngkpt2 6 6 1
istwfk2 7*1
irdden2 1
irdwfk2 1

#Definition of the planewave basis set
ecut   25.0        # Minimal kinetic energy cut-off, in Hartree

acell    4.7177372151  4.7177372151 30.0
rprim    1.00000000000000   0.000000000000000   0.00000000000000
        -0.50000000000000   0.866025403784439   0.00000000000000
         0.00000000000000   0.000000000000000   1.00000000000000

ntypat  2
znucl   5 7 
natom   2
typat   1 2 
xcart
  2.3588686075E+00  1.3618934255E+00  0.0000000000E+00
 -2.3588686075E+00 -1.3618934255E+00  0.0000000000E+00
