 &control
          wf_collect = .true.,
         calculation = "nscf",
           verbosity = 'high',
          pseudo_dir = '.',
              prefix = "mos2",
              outdir = '.',
 /&end
 &system
    force_symmorphic = .true.,
                nbnd = 40,
             ecutwfc = 60.0,
         occupations = 'fixed',
           celldm(1) = 5.877207636,
               ibrav = 4,
           celldm(3) = 5.1044648850,
            lspinorb = .true.,
                 nat = 3,
            noncolin = .true.,
                ntyp = 2,
 /&end
 &electrons
     diagonalization = "cg",
      diago_full_acc = .true.,
    electron_maxstep = 200,
         mixing_beta = 0.7,
            conv_thr = 1.0d-12,
 /&end
  ATOMIC_SPECIES
  Mo   95.940  Mo_RL_withPS_PZ.UPF
   S   32.065         S.pz-hgh.UPF
  ATOMIC_POSITIONS { crystal }
  Mo 0.333333333 0.666666667 0.000000000
   S 0.666666667 0.333333333 0.097783324
   S 0.666666667 0.333333333 -0.097783324
  K_POINTS { automatic }
6 6 1 0 0 0
