&PROJWFC
  outdir       = './'
  prefix       = 'mos2_CoarseGd'
  ngauss       = 0
  degauss      = 0.00743
  deltae       = 0.02
/
