 &control
    calculation = 'nscf'
    prefix='Si_nscf_yambo_kx8',
    pseudo_dir = './',
    outdir= './',
    wf_collect=.true.,
    verbosity ='high',
 /
 &system
    ibrav=  2,
    celldm(1) =10.183,  celldm(2) =0, celldm(3) =0,
    nat=  2
    ntyp= 1
    ecutwfc = 15
    nbnd = 16
    force_symmorphic=.true.
 /
 &electrons
    diago_full_acc=.true.
    conv_thr = 1.0d-12
 /
ATOMIC_SPECIES
 Si 28.086 Si.vbc.UPF
ATOMIC_POSITIONS (alat)
 Si 0.0000000000 0.0000000000  0.0000000000
 Si 0.2500000000 0.2500000000  0.2500000000
K_POINTS (automatic)
 8 8 8  0 0 0
