&inputpp
 outdir='/scratch/jjzhou/tmp_9157.tempo-s'
  prefix = 'si'
  seedname = 'si'
  spin_component = 'none'
  write_mmn = .true.
  write_amn = .true.
  write_unk = .false. 
/
