 &CONTROL
   calculation ='scf'
   restart_mode ='from_scratch'
   verbosity='high'
   nstep=300
   title='TiO2-SC10'
   prefix ='TiO2-3'
   outdir='./'
   pseudo_dir = './'
   disk_io='low'
   wf_collect=.true.
 /
 &SYSTEM
    ibrav= 1,
    celldm(1)=40.000,
    nat=30,
     ntyp=2
    ecutwfc =80
 /
 &ELECTRONS
        diagonalization='cg'
        conv_thr=1.0d-6
        mixing_mode = 'plain'
        mixing_beta=0.7d0
        electron_maxstep=200
 /
ATOMIC_SPECIES
       Ti    47.867    Ti-pbe-nc2.UPF
        O     15.9994   O-gga-pbe.fhi.UPF
ATOMIC_POSITIONS (angstrom)
Ti 10.5835 8.84539 8.81815
O 10.5835 8.62817 10.6762
O 10.5835 10.5835 8.2777
Ti 10.5835 12.3217 8.81815
O 10.5835 12.5389 10.6762
O 8.78341 8.37008 8.48538
O 12.3837 8.37008 8.48538
O 8.78341 12.797 8.48538
O 12.3837 12.797 8.48538
Ti 13.5436 9.17579 9.66892
Ti 13.5436 11.9913 9.66892
O 12.4804 10.5835 10.447
O 14.6824 10.5835 9.14931
Ti 7.62351 9.17579 9.66892
Ti 7.62351 11.9913 9.66892
O 8.68668 10.5835 10.447
O 6.48471 10.5835 9.14931
O 13.4754 8.27807 11.3278
O 7.69165 8.27807 11.3278
O 7.69165 12.889 11.3278
O 13.4754 12.889 11.3278
Ti 11.9881 9.03985 12.1091
Ti 11.9881 12.1272 12.1091
O 12.6522 10.5835 13.1424
Ti 9.17896 9.03985 12.1091
Ti 9.17896 12.1272 12.1091
O 8.51488 10.5835 13.1424
O 10.5835 8.16673 13.0715
O 10.5835 13.0004 13.0715
O 10.5835 10.5835 12.2546
K_POINTS (gamma)

