&control
         calculation = 'nscf'
              prefix = 'sampling_1k-maxfreq'
          pseudo_dir = './'
           verbosity = 'high'
/&end
&system
           celldm(1) = 10.474
             ecutwfc = 80.0
    force_symmorphic = .true.
               ibrav = 2
            lspinorb = .true.
                 nat = 2
                nbnd = 12
            noncolin = .true.
                ntyp = 2
         occupations = 'fixed'
/&end
&electrons
            conv_thr = 1e-12
      diago_full_acc = .false.
/&end
ATOMIC_SPECIES
  Ga      1.0  Ga_rel.pz-rrkj3.UPF
  As      1.0  As_rel.pz-rrkj3.UPF
ATOMIC_POSITIONS { alat }
 Ga   0.0000000000   0.0000000000   0.0000000000
 As   0.2500000000   0.2500000000   0.2500000000
K_POINTS { tpiba }
1
 -0.02477380   0.00762269   0.02365302   1.00000000 
