&inputph
           verbosity = 'high'
              tr2_ph = 1e-12
              prefix = 'Al'
            fildvscf = 'Al-dvscf'
              fildyn = 'Al.dyn'
               ldisp = .true.
  	    nq1=6, nq2=6, nq3=6
/
