&input 
 fildyn='Al.dyn', 
 zasr='simple', 
 flfrc='Al.fc' 
/
