&control
    calculation='bands'
    pseudo_dir = './',
    outdir='./'
    prefix='Fe_nscf_e70_k10s1_nb20_so',
    tprnfor = .true.,
    tstress = .true.,
    wf_collect= .true.,
    verbosity='high',
 /
 &system
    ibrav=3, celldm(1) = 5.42, nat=1, ntyp=1,
    starting_magnetization=2.0, nbnd=20,
    ecutwfc = 70.0, lspinorb=.true., noncolin=.true.,
 /
 &electrons
    diagonalization='david',
    conv_thr = 1.0e-8,
    mixing_beta = 0.7,
    diago_full_acc=.true.,
 /
ATOMIC_SPECIES
 Fe  55.845 Fe.rel-pbe-n-nc.UPF
ATOMIC_POSITIONS
 Fe 0.0 0.0 0.0
K_POINTS {alat}
 99
         0.0000431    0.0000000    0.1000000    1.0000000
         0.0000431   -0.1000000    0.2000000    1.0000000
         0.0000431   -0.2000000    0.3000000    1.0000000
         0.0000431   -0.3000000    0.4000000    1.0000000
         0.0000431   -0.4000000    0.5000000    1.0000000
        -0.0999569    0.1000000    0.1000000    1.0000000
        -0.0999569   -0.1000000    0.3000000    1.0000000
        -0.0999569   -0.2000000    0.4000000    1.0000000
        -0.0999569   -0.3000000    0.5000000    1.0000000
        -0.0999569    0.6000000   -0.4000000    1.0000000
        -0.1999569    0.2000000    0.1000000    1.0000000
        -0.1999569   -0.2000000    0.5000000    1.0000000
        -0.1999569    0.7000000   -0.4000000    1.0000000
        -0.2999569    0.3000000    0.1000000    1.0000000
        -0.2999569    0.2000000    0.2000000    1.0000000
        -0.2999569    0.7000000   -0.3000000    1.0000000
        -0.3999569    0.4000000    0.1000000    1.0000000
        -0.3999569    0.3000000    0.2000000    1.0000000
         0.5000432   -0.5000000    0.1000000    1.0000000
         0.5000432   -0.6000000    0.2000000    1.0000000
         0.5000432   -0.7000000    0.3000000    1.0000000
         0.4000431   -0.6000000    0.3000000    1.0000000
         0.0000431    0.0000000    0.3000000    1.0000000
         0.0000431   -0.1000000    0.4000000    1.0000000
         0.0000431   -0.2000000    0.5000000    1.0000000
         0.0000431   -0.3000000    0.6000000    1.0000000
        -0.0999569   -0.1000000    0.5000000    1.0000000
        -0.0999569   -0.2000000    0.6000000    1.0000000
        -0.0999569    0.7000000   -0.3000000    1.0000000
        -0.1999569    0.8000000   -0.3000000    1.0000000
        -0.2999569    0.3000000    0.3000000    1.0000000
         0.6000432   -0.6000000    0.3000000    1.0000000
         0.5000432   -0.5000000    0.3000000    1.0000000
         0.5000432   -0.6000000    0.4000000    1.0000000
         0.0000431    0.0000000    0.5000000    1.0000000
         0.0000431   -0.1000000    0.6000000    1.0000000
         0.0000431   -0.2000000    0.7000000    1.0000000
        -0.0999569   -0.1000000    0.7000000    1.0000000
        -0.0999569    0.8000000   -0.2000000    1.0000000
         0.5000432   -0.5000000    0.5000000    1.0000000
         0.0000431    0.0000000    0.7000000    1.0000000
         0.0000431   -0.1000000    0.8000000    1.0000000
        -0.0999569    0.9000000   -0.1000000    1.0000000
         0.0000431    0.0000000    0.9000000    1.0000000
         0.0000431    0.1000000    0.0000000    1.0000000
        -0.0999569    0.2000000    0.0000000    1.0000000
         0.2000431    0.0000000   -0.1000000    1.0000000
        -0.1999569    0.3000000    0.0000000    1.0000000
         0.3000431    0.0000000   -0.2000000    1.0000000
        -0.2999569    0.4000000    0.0000000    1.0000000
         0.4000431    0.0000000   -0.3000000    1.0000000
        -0.3999569    0.5000000    0.0000000    1.0000000
         0.5000432    0.0000000   -0.4000000    1.0000000
        -0.0999569    0.3000000   -0.1000000    1.0000000
        -0.1999569    0.4000000   -0.1000000    1.0000000
         0.4000431   -0.1000000   -0.2000000    1.0000000
        -0.2999569    0.5000000   -0.1000000    1.0000000
         0.5000432   -0.1000000   -0.3000000    1.0000000
         0.6000432   -0.4000000   -0.1000000    1.0000000
         0.2000431    0.1000000   -0.2000000    1.0000000
        -0.1999569    0.5000000   -0.2000000    1.0000000
         0.7000432   -0.4000000   -0.2000000    1.0000000
        -0.3999569   -0.2000000    0.7000000    1.0000000
         0.3000431    0.1000000   -0.3000000    1.0000000
         0.2000431    0.2000000   -0.3000000    1.0000000
         0.4000431    0.1000000   -0.4000000    1.0000000
         0.3000431    0.2000000   -0.4000000    1.0000000
         0.2000431   -0.4000000    0.3000000    1.0000000
        -0.4999568    0.1000000    0.5000000    1.0000000
        -0.5999569    0.2000000    0.5000000    1.0000000
         0.2000431    0.5000000   -0.6000000    1.0000000
        -0.6999568    0.3000000    0.5000000    1.0000000
        -0.5999569    0.3000000    0.4000000    1.0000000
         0.0000431    0.3000000    0.0000000    1.0000000
        -0.0999569    0.4000000    0.0000000    1.0000000
         0.4000431    0.0000000   -0.1000000    1.0000000
        -0.1999569    0.5000000    0.0000000    1.0000000
         0.5000432    0.0000000   -0.2000000    1.0000000
        -0.2999569    0.6000000    0.0000000    1.0000000
         0.6000432    0.0000000   -0.3000000    1.0000000
        -0.0999569    0.5000000   -0.1000000    1.0000000
        -0.1999569    0.6000000   -0.1000000    1.0000000
         0.6000432   -0.1000000   -0.2000000    1.0000000
         0.7000432   -0.3000000   -0.1000000    1.0000000
         0.8000432   -0.3000000   -0.2000000    1.0000000
        -0.5999569    0.3000000    0.6000000    1.0000000
        -0.4999568    0.3000000    0.5000000    1.0000000
        -0.5999569    0.4000000    0.5000000    1.0000000
         0.0000431    0.5000000    0.0000000    1.0000000
        -0.0999569    0.6000000    0.0000000    1.0000000
         0.6000432    0.0000000   -0.1000000    1.0000000
        -0.1999569    0.7000000    0.0000000    1.0000000
         0.7000432    0.0000000   -0.2000000    1.0000000
        -0.0999569    0.7000000   -0.1000000    1.0000000
         0.8000432   -0.2000000   -0.1000000    1.0000000
         0.0000431    0.7000000    0.0000000    1.0000000
        -0.0999569    0.8000000    0.0000000    1.0000000
         0.8000432    0.0000000   -0.1000000    1.0000000
         0.0000431    0.9000000    0.0000000    1.0000000

