 &control
    calculation = 'scf',
    prefix='si', 
    pseudo_dir = '../pseudo',
    wf_collect=.true.,
    verbosity ='high'
 /
 &system
    ibrav=  0,
    celldm(1) =5.09150
    nat=  2, 
    ntyp= 1, 
    ecutwfc = 40
    force_symmorphic= .TRUE.,
 /
 &electrons
    conv_thr = 1.0d-12
 /
ATOMIC_SPECIES
 Si 28.086 Si.vbc.UPF
ATOMIC_POSITIONS {crystal}
 Si 0 0  0
 Si 0.25 0.25  0.25
CELL_PARAMETERS alat
0.0  1.0  1.0
1.0  0.0  1.0
1.0  1.0  0.0
K_POINTS {automatic}
  4 4 4 0 0 0
