&CONTROL
    calculation = 'scf', 
    restart_mode='from_scratch',
    prefix='Ar',
    pseudo_dir= './psps',
    outdir= './',
    wf_collect = .true.
 /
 &SYSTEM
                   ibrav = 1,
                   celldm(1) = 35.0,
                         nat = 1,
                        ntyp = 1,
                     ecutwfc = 25,
                       nspin = 1
                      occupations='fixed'
 /
 &ELECTRONS
          electron_maxstep = 50,
          mixing_mode = 'plain',
          mixing_beta = 0.3,
          conv_thr = 1.d-6
 /
ATOMIC_SPECIES
    Ar   39.95  Ar.pz-rrkj.UPF
ATOMIC_POSITIONS (angstrom)
Ar      0.000000000     0.000000000     0.0000000000
K_POINTS {gamma}
