&control
         calculation = 'nscf'
              prefix = 'pw'
          pseudo_dir = '/storage/projects/vlc82/pseudos/dojo/nc-fr-04_lda_standard'
           verbosity = 'high'
          wf_collect = .true.
/&end
&system
           celldm(1) = 5.8904173896
           celldm(3) = 2.546508847825231
             ecutwfc = 80
    force_symmorphic = .true.
               ibrav = 4
            lspinorb = .true.
                 nat = 3
                nbnd = 100
            noncolin = .true.
                ntyp = 2
/&end
&electrons
            conv_thr = 1e-07
      diago_full_acc = .true.
/&end


ATOMIC_SPECIES
  Mo    95.94               Mo.upf
   S   32.065                S.upf
ATOMIC_POSITIONS { crystal }
  S   0.3333333330   0.6666666670  -0.1960694838
 Mo   0.6666666670   0.3333333330   0.0000000000
  S   0.3333333330   0.6666666670   0.1960694838
K_POINTS { automatic }
 15 15  1  0  0  0