&control
              prefix = 'pw'
          pseudo_dir = '.'
           verbosity = 'high'
          wf_collect = .true.
/&end
&system
             ecutwfc = 80
               ibrav = 0
            lspinorb = .true.
                 nat = 3
            noncolin = .true.
                ntyp = 2
/&end
&electrons
            conv_thr = 1e-12
/&end


ATOMIC_SPECIES
  Mo    95.94          Mo-sp_r.upf
   S   32.065           S-sp_r.upf
ATOMIC_POSITIONS { crystal }
 Mo   0.6666666667   0.3333333333   0.0000000000
  S   0.3333333333   0.6666666667   0.0986236991
  S   0.3333333333   0.6666666667  -0.0986236991
K_POINTS { automatic }
 12 12  1  0  0  0
CELL_PARAMETERS bohr
  6.0061312159   0.0000000000   0.0000000000 
 -3.0030656079   5.2014622114   0.0000000000 
  0.0000000000   0.0000000000  30.0000000000 