 &control
    calculation = 'scf',prefix='C', pseudo_dir = '../../../pseudo',
    wf_collect=.true.,
    force_symmorphic= .TRUE.,
    verbosity ='high'
 /
 &system
    ibrav=  2, 
    celldm(1) =6.74, celldm(2) =0, celldm(3) =0, 
    nat=  2, ntyp= 1, ecutwfc = 40, nbnd = 20,
     
 /
 &electrons
    diago_full_acc=.TRUE.,
    conv_thr = 1.0d-8
 /
ATOMIC_SPECIES
 C 12.0107 C.pz-vbc.UPF
ATOMIC_POSITIONS {alat}
 C 0 0  0 
 C 0.25 0.25  0.25 
K_POINTS {automatic}
  4 4 4 0 0 0
