phonons
&inputph
  amass(1)=95.940,
  amass(2)=32.065,
   prefix = 'mos2',
   tr2_ph =  1.0d-3 ,
   fildyn = "mos2.dyn" ,
   fildvscf =  "dvscf" ,
   iverbosity =  1 ,
   ldisp = .false.,
   trans = .false.,
   epsil = .false.,
   qplot = .true.,
   electron_phonon='yambo',
   outdir = "./",
/
3
0.000000000  0.000000000  0.000000000 1
0.000000000  -0.384900212  0.000000000 1
-0.333333373  -0.577350378  0.000000000 1
