&control
    calculation='scf'
    restart_mode='from_scratch',
    pseudo_dir = './',
    outdir='./'
    prefix='Co_e80_k8_nb20_so'
    tprnfor = .true.,
    tstress = .true.
    wf_collect= .true. 
 /
 &system
    ibrav=2, celldm(1) = 6.71, nat=1, ntyp=1,
    starting_magnetization(1)=0.7, nbnd=20,
    ecutwfc = 80.0, lspinorb=.true., noncolin=.true., 
    occupations='smearing', smearing='methfessel-paxton', degauss=0.02,
 /
 &electrons
    diagonalization='david',
    conv_thr = 1.0e-8,
    mixing_beta = 0.7,
    diago_full_acc = .true.,
 /
ATOMIC_SPECIES
 Co 58.93 Co.rel-pbe-n-nc.UPF
ATOMIC_POSITIONS
 Co 0.0 0.0 0.0
K_POINTS {automatic}
   8 8 8 1 1 1
 
