 &control
    calculation = 'nscf',prefix='Si', pseudo_dir = '.'
 /
 &system
    ibrav=  2, 
    celldm(1) =10.183, celldm(2) =0, celldm(3) =0, 
    nat=  2, ntyp= 1, ecutwfc = 15, nbnd = 10,
 /
 &electrons
    diago_full_acc=.TRUE.,
    conv_thr = 1.0d-8
 /
ATOMIC_SPECIES
 Si 28.086 Si.vbc.UPF
ATOMIC_POSITIONS {alat}
 Si 0 0  0 
 Si 0.25 0.25  0.25 
K_POINTS {tpiba}
1001
    0.249999985 -0.249999985  0.750000000 0.001
    -0.2845737   0.6660739  -0.5285722   0.0010000
    -0.1599797   0.0307689  -0.1179523   0.0010000
     0.1431371   0.5208930  -0.1675515   0.0010000
     0.8186002   0.3736007   0.0235792   0.0010000
     0.6703383   0.2195100  -0.3361279   0.0010000
    -0.9855820  -0.1350117  -0.0609094   0.0010000
    -0.0211056   0.9955550   0.1608908   0.0010000
    -0.3490287   0.1554984   0.3379621   0.0010000
    -0.3230939   0.5221189   0.5872696   0.0010000
     0.1995684   0.1544743  -0.7964243   0.0010000
     0.0495370   0.3631790  -0.9720019   0.0010000
     0.1799278   0.1377534  -0.9127828   0.0010000
    -0.5337686   0.6592724  -0.0860459   0.0010000
     0.8384434  -0.4302433   0.0536264   0.0010000
     0.2932126   0.4153321  -0.5953768   0.0010000
     0.1895503   0.3230254   0.1813601   0.0010000
     0.7302283   0.1604428  -0.2820428   0.0010000
     0.2521069   0.3820322   0.2037265   0.0010000
     0.4163022  -0.5752832   0.3393526   0.0010000
     0.7791752   0.0621281  -0.2441029   0.0010000
     0.0088017  -0.4009363   0.3299687   0.0010000
     0.3347326   0.7149449  -0.3360821   0.0010000
    -0.5821838  -0.5149858  -0.0988874   0.0010000
    -0.2702729   0.3605202  -0.5388758   0.0010000
     0.8922781   0.1696575  -0.2265254   0.0010000
     0.3792976  -0.5511974   0.3183084   0.0010000
     0.1034488   0.7626099  -0.1237481   0.0010000
    -0.1093117   0.4534526  -0.5215542   0.0010000
     0.1825076   0.5059509   0.3515295   0.0010000
    -0.3240805   0.6604426   0.3047523   0.0010000
     0.3403452   0.8829410  -0.2099318   0.0010000
    -0.0175543  -0.0564634  -0.6355777   0.0010000
     0.0204861  -0.3114267   0.8816360   0.0010000
     0.1101862  -0.9935679  -0.2493329   0.0010000
     0.1832013   0.8165936  -0.0651366   0.0010000
     0.8971749   0.1104808  -0.0668150   0.0010000
     0.4885398  -0.2083686   0.2357162   0.0010000
    -0.5986290  -0.2750647   0.2393484   0.0010000
    -0.0526613  -0.8786893  -0.3120021   0.0010000
    -0.8170852  -0.2115555  -0.2043705   0.0010000
     0.8779077   0.0120973   0.0611912   0.0010000
     0.4694744   0.4579982   0.4124597   0.0010000
     0.7366942  -0.0611437   0.4471663   0.0010000
    -0.1055431   0.6025161  -0.7299473   0.0010000
     0.4748524  -0.7573510  -0.0840517   0.0010000
     0.0650102   0.6468509  -0.6267798   0.0010000
    -0.4738374   0.6933483   0.1993999   0.0010000
     0.1254667  -0.2471399  -0.1957497   0.0010000
     0.9070900  -0.0344793  -0.1274532   0.0010000
     0.3456683  -0.1562929  -0.6931739   0.0010000
     0.0702810   0.1933481   0.5281914   0.0010000
    -0.2167344  -0.4262942  -0.3058254   0.0010000
     0.1042301  -0.1098601   0.5135211   0.0010000
    -0.6011288   0.1800847  -0.5045488   0.0010000
    -0.1642911  -0.7431917  -0.5471907   0.0010000
     0.7652951  -0.3347821  -0.1103139   0.0010000
    -0.1920619   0.4090040  -0.0217675   0.0010000
    -0.6018409  -0.0504945   0.4403835   0.0010000
    -0.2447506  -0.2409554   0.8384015   0.0010000
     0.6288459  -0.3599968   0.4343341   0.0010000
     0.1165402  -0.4675135  -0.5894970   0.0010000
     0.5036151   0.5671838   0.1291115   0.0010000
    -0.4518880   0.1023405  -0.5819494   0.0010000
    -0.1524798  -0.1668109  -0.7658800   0.0010000
     0.3116736  -0.4377877   0.1233636   0.0010000
     0.8816427   0.0765970  -0.1339020   0.0010000
     0.0666313  -0.2752303   0.1816192   0.0010000
    -0.6964968   0.3363153   0.2804300   0.0010000
     0.4882001  -0.2976160  -0.3792019   0.0010000
     0.1866158  -0.8517133   0.0381863   0.0010000
    -0.2143949  -0.1416154  -0.2858343   0.0010000
     0.0084082  -0.6787180  -0.6945904   0.0010000
    -0.6601532  -0.3328403   0.1244817   0.0010000
     0.1256752  -0.3245239  -0.5252959   0.0010000
     0.0686641  -0.9837048  -0.0379568   0.0010000
    -0.8383942  -0.0380181   0.5146254   0.0010000
     0.6387581  -0.0520525   0.5243263   0.0010000
     0.6775922   0.3797481  -0.2959982   0.0010000
     0.8985084  -0.4126267   0.0706168   0.0010000
     0.2779412  -0.2714206   0.1625131   0.0010000
     0.0342470   0.8354539   0.0332766   0.0010000
     0.2665348   0.3137176   0.6679764   0.0010000
    -0.2336599  -0.3504353   0.8270072   0.0010000
    -0.2690701   0.0633534   0.2015213   0.0010000
    -0.9186283  -0.1243855  -0.1426177   0.0010000
     0.5611455   0.0519959   0.8497612   0.0010000
     0.5522258   0.1311622  -0.4425123   0.0010000
    -0.1026850  -0.6618060   0.1865863   0.0010000
    -0.0595806  -0.2457359  -0.2801825   0.0010000
    -0.8120717   0.2123839   0.0627783   0.0010000
    -0.5856525   0.4570210   0.0252702   0.0010000
     0.1386079   0.6828650   0.4433100   0.0010000
    -0.2391730   0.4807214   0.1803653   0.0010000
    -0.1250709   0.5117995  -0.6425691   0.0010000
     0.6129923  -0.2332882   0.1535277   0.0010000
    -0.1506895  -0.8493468  -0.1484738   0.0010000
    -0.0756143   0.2534451   0.6980484   0.0010000
     0.4864649   0.8515403  -0.1095616   0.0010000
     0.2465914  -0.1128755   0.7137474   0.0010000
     0.2243180  -0.6053759   0.3464929   0.0010000
     0.3696354   0.8697581  -0.1278030   0.0010000
    -0.0684404   0.2097473  -0.3131604   0.0010000
     0.2439938  -0.0638106   0.1740151   0.0010000
    -0.5161347   0.4540381  -0.4616485   0.0010000
     0.1990271  -0.4356097   0.0944257   0.0010000
     0.6371863  -0.0890095  -0.2283690   0.0010000
    -0.4386492  -0.5697050  -0.3512835   0.0010000
     0.0277257  -0.4628426  -0.9126331   0.0010000
    -0.5203972  -0.4435713   0.0288677   0.0010000
    -0.4682531  -0.0906379  -0.8275245   0.0010000
     0.0453569  -0.9812277  -0.4664651   0.0010000
     0.1055442   0.2243424  -0.7115571   0.0010000
     0.1334732   0.4293026  -0.7612961   0.0010000
     0.3938235  -0.9220293   0.0625590   0.0010000
     0.2690052  -0.3223821   0.4006599   0.0010000
     0.5715637  -0.0554150   0.6041157   0.0010000
    -0.6268464   0.0917729  -0.5283208   0.0010000
    -0.1544994  -0.5900980  -0.6608984   0.0010000
    -0.0066219  -0.1854365   0.7718940   0.0010000
     0.3739839   0.7901248  -0.2187171   0.0010000
     0.3157104   0.0476995   0.4339933   0.0010000
    -0.1821778   0.0191648   0.9838698   0.0010000
    -0.3188595  -0.0282103   0.4350286   0.0010000
     0.5961144  -0.1318806   0.0839568   0.0010000
     0.0055580   0.8667279   0.3988729   0.0010000
    -0.6523581  -0.3494748  -0.3570794   0.0010000
    -0.6437596   0.6141554   0.2245225   0.0010000
    -0.1472426  -0.1638303   0.7129716   0.0010000
    -0.3645012  -0.8249066   0.0413520   0.0010000
     0.1895558   0.0800312  -0.7406505   0.0010000
     0.4917182   0.0629023   0.1043361   0.0010000
     0.1352279  -0.3295956  -0.4455675   0.0010000
    -0.4239062  -0.4963672   0.0424634   0.0010000
    -0.1967729  -0.4208809   0.8106557   0.0010000
    -0.3146655   0.4305006   0.6718332   0.0010000
     0.0264869   0.9614804   0.1424060   0.0010000
    -0.0484342  -0.4830846  -0.9077172   0.0010000
    -0.5854837   0.0400513   0.0070757   0.0010000
     0.5728633   0.1347850  -0.1998805   0.0010000
     0.5583895   0.2658436  -0.4714523   0.0010000
    -0.2669586   0.3313061   0.0202132   0.0010000
     0.4078631  -0.8152836   0.2145365   0.0010000
     0.4031875   0.1728760   0.2551365   0.0010000
     0.5904018  -0.3524297   0.2626466   0.0010000
     0.2039101   0.8888718   0.2206423   0.0010000
     0.3966561  -0.4818580   0.1413248   0.0010000
    -0.6202908   0.0207550   0.2164271   0.0010000
    -0.0622745   0.1706828   0.7940890   0.0010000
    -0.5157081   0.0164484  -0.0991768   0.0010000
    -0.2027296  -0.3919451   0.4868017   0.0010000
    -0.5691390   0.2458500  -0.6001667   0.0010000
    -0.1990841  -0.3663750   0.4456151   0.0010000
     0.6289388  -0.5569475  -0.2164066   0.0010000
     0.2104181  -0.6119088   0.5591680   0.0010000
    -0.5693958  -0.6192520  -0.1203832   0.0010000
    -0.6667974  -0.5827546   0.0780802   0.0010000
     0.4322191   0.5022519  -0.1714792   0.0010000
    -0.2501756  -0.7395494  -0.1570445   0.0010000
    -0.2804246   0.2592877   0.9397357   0.0010000
     0.1601754  -0.6642486   0.2988918   0.0010000
     0.0320200   0.5872281   0.6193508   0.0010000
    -0.2376244   0.8295074  -0.0987055   0.0010000
    -0.4991351   0.0649254  -0.1976228   0.0010000
    -0.1763349   0.4773374  -0.5420429   0.0010000
    -0.0016556   0.9832177  -0.1186292   0.0010000
     0.0151787  -0.6032115   0.3486458   0.0010000
     0.4731713   0.2385545   0.5894833   0.0010000
    -0.3081018   0.0881386   0.8640079   0.0010000
    -0.1310791   0.0529069   0.9676018   0.0010000
    -0.0072265   0.4053961  -0.3077499   0.0010000
    -0.1598636  -0.1580170  -0.6769942   0.0010000
    -0.1542832  -0.2695316   0.0316704   0.0010000
    -0.1498057   0.7233117   0.1657438   0.0010000
    -0.1885457   0.6040571  -0.3693523   0.0010000
     0.2699106  -0.0727966   0.3651614   0.0010000
    -0.4497927   0.6245914  -0.0237483   0.0010000
     0.1844686  -0.1041583   0.6566032   0.0010000
    -0.4733610  -0.1768994  -0.8191167   0.0010000
    -0.1047116   0.1235067   0.8941026   0.0010000
     0.6368352  -0.0968461   0.4995445   0.0010000
    -0.2103690   0.1027124  -0.5224864   0.0010000
     0.1428461  -0.8175269   0.2980671   0.0010000
     0.2139867  -0.5224441   0.5063303   0.0010000
    -0.3124695   0.3595178  -0.8033657   0.0010000
    -0.7463498   0.0408007  -0.2609127   0.0010000
     0.0435070  -0.1990288   0.2174281   0.0010000
     0.6926630   0.2688502  -0.2120312   0.0010000
    -0.6865195  -0.7037976  -0.0486466   0.0010000
    -0.0911933  -0.6434712   0.6886705   0.0010000
     0.1988804  -0.5881190  -0.3944963   0.0010000
    -0.3310110   0.0277113   0.9058295   0.0010000
    -0.2079848  -0.3319225   0.6172830   0.0010000
     0.0672399  -0.6894540   0.3372266   0.0010000
    -0.5058274  -0.2712491   0.0192762   0.0010000
     0.2053497   0.5081287   0.3891152   0.0010000
    -0.6506622   0.5074965   0.2926944   0.0010000
    -0.1332328  -0.9530055  -0.1538298   0.0010000
     0.7059283   0.2117155  -0.3444646   0.0010000
     0.0474437  -0.6333544   0.0068161   0.0010000
     0.6892849   0.5058215   0.2321585   0.0010000
    -0.3990808  -0.2929128   0.5350392   0.0010000
     0.6522708  -0.4247089  -0.3068923   0.0010000
     0.7030523   0.4740570  -0.0525802   0.0010000
    -0.0468016   0.7484180   0.3853649   0.0010000
     0.6866124   0.3887638   0.2979595   0.0010000
     0.2109513  -0.2815350   0.7035135   0.0010000
    -0.4475735   0.0921847  -0.4203587   0.0010000
    -0.1122656  -0.6512159   0.4556129   0.0010000
    -0.8962679   0.0413968  -0.2652628   0.0010000
     0.3478445   0.7628345  -0.1033094   0.0010000
    -0.7460213  -0.2135289   0.3685927   0.0010000
     0.0803742   0.7426881   0.1170760   0.0010000
     0.5199846   0.1250670  -0.0107579   0.0010000
    -0.1131563  -0.1798201  -0.1067192   0.0010000
    -0.3108809  -0.6302397  -0.2557116   0.0010000
    -0.0690613   0.5756042  -0.2380635   0.0010000
    -0.5614156  -0.1640887  -0.0283526   0.0010000
    -0.9105499   0.4927292   0.0392660   0.0010000
    -0.7799379   0.0865174  -0.1782665   0.0010000
    -0.4540980  -0.4129879   0.2564616   0.0010000
    -0.6274577  -0.2693996  -0.5998199   0.0010000
    -0.4419088  -0.2967974   0.0180509   0.0010000
     0.7860546   0.6029890   0.0572145   0.0010000
    -0.2948753   0.0538875   0.3096598   0.0010000
    -0.1956155   0.7522511   0.2604587   0.0010000
    -0.3592865  -0.7269365  -0.0649244   0.0010000
    -0.2413002   0.3705952   0.6468930   0.0010000
    -0.0578243  -0.1564484   0.0899605   0.0010000
    -0.1690566  -0.7048420   0.4243447   0.0010000
    -0.7451392  -0.0180790   0.6663147   0.0010000
     0.6876729   0.0302246  -0.5654223   0.0010000
    -0.1659705   0.8336390  -0.1949932   0.0010000
    -0.0337169  -0.3752684   0.1236746   0.0010000
     0.4766321   0.1643329   0.8402038   0.0010000
     0.0160613  -0.5727162   0.2486710   0.0010000
    -0.2019811   0.5248699  -0.5222175   0.0010000
     0.3787417  -0.4798683  -0.1846414   0.0010000
    -0.2870049  -0.0020282   0.3782574   0.0010000
     0.2016840  -0.5356169   0.1369359   0.0010000
    -0.2221537  -0.5087776  -0.2504810   0.0010000
    -0.5826423   0.5083541   0.0312753   0.0010000
    -0.0957089   0.5248783   0.3185374   0.0010000
    -0.1310896  -0.3664011   0.3650142   0.0010000
     0.6505843   0.5226146   0.1067891   0.0010000
    -0.0645265  -0.1618642  -0.3427041   0.0010000
    -0.1532281   0.3909414  -0.7961968   0.0010000
    -0.1933927  -0.9035645  -0.0063502   0.0010000
    -0.7626703  -0.1920683  -0.3925054   0.0010000
     0.6919530  -0.0219052  -0.4412852   0.0010000
    -0.0079651  -0.1965422  -0.6017314   0.0010000
     0.7437382   0.3200480   0.3034986   0.0010000
     0.4358399   0.4218398  -0.6412538   0.0010000
    -0.1999122  -0.2558689   0.6425329   0.0010000
     0.3306559   0.0582444  -0.6809729   0.0010000
    -0.4532644   0.4861158  -0.5016671   0.0010000
    -0.0514885   0.1078762  -0.6804880   0.0010000
     0.3477685   0.2444315   0.6485156   0.0010000
     0.3105135   0.1919423   0.9959908   0.0010000
     0.2138989   0.3670895  -0.5594990   0.0010000
    -0.1622181   0.5334798  -0.6469707   0.0010000
     0.2267447   0.0045584  -0.2311378   0.0010000
    -0.9643488   0.1374764   0.1232902   0.0010000
    -0.0363562  -0.4335040   0.3598224   0.0010000
    -0.0621508  -0.2794801   0.9789319   0.0010000
    -0.0693421   0.4781738  -0.5611717   0.0010000
    -0.1516030   0.7167470  -0.3989390   0.0010000
    -0.2526959  -0.3512887   0.4818051   0.0010000
    -0.0291165  -0.6318768  -0.6365093   0.0010000
    -0.5921116   0.4891039   0.3958160   0.0010000
     0.1752299  -0.3398296  -0.4949038   0.0010000
     0.3352383   0.6922184  -0.4537331   0.0010000
    -0.2079904  -0.3261789  -0.6211001   0.0010000
     0.5329801   0.0657924  -0.2995293   0.0010000
    -0.6750759  -0.3867634  -0.2714620   0.0010000
     0.1491069  -0.6080213  -0.3137068   0.0010000
     0.0046670  -0.3351414  -0.0501807   0.0010000
     0.6863677  -0.0521449  -0.5717374   0.0010000
     0.6252007   0.0415053   0.7302742   0.0010000
    -0.5847820  -0.5357077  -0.1869425   0.0010000
     0.4808576  -0.1354349  -0.4720101   0.0010000
     0.3532170   0.3445585   0.0020667   0.0010000
     0.4808294  -0.4070328  -0.3353899   0.0010000
    -0.0843105   0.4745279  -0.5424881   0.0010000
     0.0736612  -0.5204223   0.7843494   0.0010000
    -0.6347402   0.1347242  -0.2765341   0.0010000
    -0.0087631   0.5861418   0.6717309   0.0010000
    -0.7123057   0.2674919   0.1584451   0.0010000
    -0.2433959   0.5930883   0.1232616   0.0010000
    -0.0385533   0.6949386   0.3010453   0.0010000
    -0.2114323  -0.1207433  -0.4559263   0.0010000
    -0.1118671   0.1350957   0.4110242   0.0010000
     0.0503808  -0.2722308  -0.7040972   0.0010000
    -0.4690764   0.2561416  -0.3540698   0.0010000
    -0.3928189   0.7059901  -0.1343655   0.0010000
     0.8735894   0.1595155  -0.3961792   0.0010000
     0.1364319  -0.5097681   0.3601257   0.0010000
    -0.2278605  -0.3041914   0.7363753   0.0010000
     0.3821261   0.6521916  -0.1849677   0.0010000
    -0.7347694  -0.4746840   0.2285786   0.0010000
    -0.5066605  -0.0325663   0.8928680   0.0010000
    -0.1483164  -0.1978474   0.0224633   0.0010000
    -0.2434034   0.5613298   0.1445179   0.0010000
     0.0473105  -0.0458104  -0.8512459   0.0010000
    -0.0396951  -0.4950216  -0.6509658   0.0010000
     0.5226127   0.3761814  -0.0229599   0.0010000
    -0.1339045  -0.1901889  -0.3383822   0.0010000
     0.2079783  -0.0158770   0.3132606   0.0010000
    -0.6835182   0.0983985   0.6683521   0.0010000
    -0.6385756   0.3951662  -0.4219674   0.0010000
     0.0194285   0.3523386  -0.6365876   0.0010000
     0.2440705   0.0441301  -0.2959869   0.0010000
     0.0000279  -0.2381444   0.7996443   0.0010000
     0.3523638   0.4252609   0.5583816   0.0010000
     0.0230386  -0.2821630  -0.0288375   0.0010000
    -0.0606511  -0.1307594  -0.5370943   0.0010000
     0.4608006   0.0449259   0.1308594   0.0010000
    -0.2157549   0.3697384  -0.7389011   0.0010000
    -0.2449988   0.5037005   0.0007570   0.0010000
    -0.1399001  -0.2886048  -0.7410864   0.0010000
     0.5800132  -0.2621872  -0.4762800   0.0010000
    -0.6246333  -0.4492328   0.2165683   0.0010000
     0.2975805  -0.1140776   0.9478709   0.0010000
     0.4150356   0.2333506   0.4821902   0.0010000
     0.0832679  -0.6208719  -0.3554197   0.0010000
     0.0032028  -0.6251084  -0.3047510   0.0010000
    -0.6580421  -0.4994027   0.1814384   0.0010000
    -0.3301269  -0.6222125  -0.5075290   0.0010000
     0.1545729   0.3489016   0.6986732   0.0010000
    -0.5656987   0.0035966   0.3095641   0.0010000
     0.2950074   0.2740542   0.4906636   0.0010000
    -0.6872768  -0.4143346  -0.1430699   0.0010000
    -0.4873979   0.2333413  -0.0960021   0.0010000
    -0.1769516  -0.6313978  -0.6779339   0.0010000
    -0.0948756  -0.8499923  -0.0650449   0.0010000
    -0.0936543   0.4495964  -0.5090500   0.0010000
    -0.2290608  -0.8222777  -0.2757446   0.0010000
     0.0225505  -0.3849899  -0.0088954   0.0010000
    -0.6084552  -0.8016732  -0.0314981   0.0010000
     0.2593187  -0.5672482   0.3172520   0.0010000
     0.4557473  -0.2597762  -0.0918572   0.0010000
    -0.7762702  -0.0477936   0.6283050   0.0010000
    -0.1313486   0.5568669   0.2673173   0.0010000
    -0.4279302   0.1146838  -0.8124614   0.0010000
    -0.1684153   0.2132102   0.8955523   0.0010000
    -0.8433151  -0.4793346  -0.1176935   0.0010000
    -0.0871410  -0.4290344  -0.9578889   0.0010000
    -0.1125467   0.2455771   0.3194182   0.0010000
    -0.3266652  -0.3700249  -0.4595464   0.0010000
    -0.1516851   0.0706044   0.1785635   0.0010000
     0.7841644   0.1202594  -0.1090791   0.0010000
    -0.0290620   0.6529539  -0.4070100   0.0010000
    -0.9462054   0.1149771   0.0060453   0.0010000
    -0.7209785   0.0739331   0.5636674   0.0010000
     0.1966968  -0.5249209   0.6966581   0.0010000
     0.4844353  -0.0471211  -0.8207838   0.0010000
    -0.4232413   0.5046910   0.0008276   0.0010000
     0.5158652  -0.3177290   0.0027664   0.0010000
     0.4920323  -0.6295519   0.2222598   0.0010000
    -0.6278257  -0.4756362  -0.1607914   0.0010000
    -0.4911884   0.1550337   0.3851367   0.0010000
     0.0667221  -0.7209326   0.2883321   0.0010000
    -0.7850398  -0.1597424  -0.3344430   0.0010000
    -0.3312837   0.0140769  -0.2070475   0.0010000
    -0.0661212  -0.2994931  -0.0229360   0.0010000
     0.0966580   0.0811937  -0.7840961   0.0010000
    -0.2167745   0.4831644   0.5229624   0.0010000
     0.1400716  -0.2982363   0.5108753   0.0010000
     0.1072570  -0.3696461  -0.2348401   0.0010000
    -0.6792282  -0.5970839  -0.1043679   0.0010000
     0.2898800   0.2507565   0.9412036   0.0010000
    -0.2991981   0.5780787  -0.4147961   0.0010000
     0.1047383   0.5387912  -0.4164648   0.0010000
    -0.8659640   0.1309985  -0.4244102   0.0010000
     0.3386286  -0.1767887   0.8252689   0.0010000
     0.5848396   0.4189708  -0.3066646   0.0010000
     0.8818973  -0.3196391  -0.2364861   0.0010000
     0.9050531   0.2519939  -0.0179766   0.0010000
    -0.2016649  -0.3163768   0.0840667   0.0010000
     0.7074154   0.1874464   0.5256158   0.0010000
    -0.0369425  -0.8417124  -0.2644553   0.0010000
     0.1440399  -0.2503593  -0.9888681   0.0010000
    -0.1679669  -0.1149469  -0.4513150   0.0010000
     0.2118179  -0.2923810  -0.3819022   0.0010000
    -0.0967904   0.0840427   0.6561981   0.0010000
    -0.9973989  -0.0701471  -0.0353197   0.0010000
    -0.3822675   0.2397648  -0.4428174   0.0010000
    -0.7303995  -0.0594708  -0.2398426   0.0010000
    -0.1063623   0.0107258   0.7684469   0.0010000
     0.5708445   0.5611632  -0.0140689   0.0010000
    -0.3075837   0.5136947   0.4801762   0.0010000
     0.9681704  -0.2005600  -0.2595834   0.0010000
    -0.3524314  -0.2479697  -0.4903638   0.0010000
    -0.2469872   0.7178240  -0.2488779   0.0010000
     0.4262426  -0.3034430   0.3287351   0.0010000
    -0.5026810  -0.0227211   0.6053675   0.0010000
    -0.0098077   0.4930415   0.7512431   0.0010000
     0.9229071  -0.2908475  -0.1168512   0.0010000
     0.1304868  -0.6952245   0.0558916   0.0010000
    -0.4919426  -0.3262376  -0.4634463   0.0010000
     0.1222526   0.2695929  -0.3716873   0.0010000
    -0.3681577   0.0503144  -0.6936222   0.0010000
    -0.1704428  -0.0237530   0.5010127   0.0010000
    -0.1150222  -0.3924040  -0.6427482   0.0010000
     0.8124869   0.0799813   0.0849823   0.0010000
    -0.3383953   0.4046465   0.4327125   0.0010000
     0.6438538  -0.4015723  -0.3519703   0.0010000
     0.4191566  -0.2668607  -0.7385545   0.0010000
     0.0358467   0.9871346  -0.3336348   0.0010000
    -0.2703006  -0.6160185   0.4873148   0.0010000
    -0.3542857   0.3900008  -0.2603214   0.0010000
    -0.0858050  -0.6458145   0.5696176   0.0010000
    -0.2039471   0.7114811  -0.3830758   0.0010000
    -0.0389944  -0.1406291   0.5258462   0.0010000
    -0.6754521  -0.5029237  -0.1739158   0.0010000
    -0.2247169  -0.2068622  -0.6393805   0.0010000
     0.7869884  -0.2046016  -0.3580996   0.0010000
    -0.6143543   0.0882221   0.0918901   0.0010000
    -0.4610958  -0.2169079   0.7928991   0.0010000
    -0.4580134  -0.3649909   0.1597545   0.0010000
    -0.3578914   0.0798407  -0.3579538   0.0010000
    -0.4956869  -0.1666869  -0.4085532   0.0010000
    -0.0979993  -0.1470188  -0.6726652   0.0010000
    -0.6982791   0.2754537   0.1833356   0.0010000
     0.0287820   0.8632106  -0.5165679   0.0010000
     0.4263447   0.3125468   0.1491985   0.0010000
     0.5525550  -0.5276586   0.4055030   0.0010000
     0.3844345   0.7635691  -0.0975037   0.0010000
    -0.2502936  -0.1476615   0.8041022   0.0010000
     0.0293754   0.1037541   0.0367450   0.0010000
     0.5639637   0.1869455  -0.2629325   0.0010000
    -0.1382287  -0.3033665  -0.9029524   0.0010000
     0.0505813  -0.7437786  -0.3715439   0.0010000
    -0.4406852  -0.8854737   0.0543259   0.0010000
    -0.0486384  -0.8674541  -0.5510176   0.0010000
    -0.4222316   0.3983600   0.5768281   0.0010000
    -0.0135198  -0.2444432   0.0490647   0.0010000
    -0.6174567  -0.2589777   0.0828184   0.0010000
     0.2072208   0.0152446   0.6446443   0.0010000
    -0.1051158   0.2478159  -0.9435887   0.0010000
     0.2032124  -0.5042771  -0.4151891   0.0010000
     0.2654917   0.9601296   0.2301313   0.0010000
     0.1413021   0.5542610   0.1037491   0.0010000
    -0.0293303  -0.4740308   0.2323164   0.0010000
    -0.1712312  -0.1616912  -0.5755931   0.0010000
     0.3870262   0.1543395  -0.3463537   0.0010000
     0.8793268   0.0774467   0.3071526   0.0010000
     0.8586177   0.4640251   0.1331812   0.0010000
    -0.9219105  -0.2427445   0.2560910   0.0010000
    -0.1668025   0.0363948  -0.4237827   0.0010000
     0.2960604   0.4609242  -0.5542926   0.0010000
     0.4734810  -0.4845807  -0.2542194   0.0010000
     0.1362427   0.1206915  -0.3416910   0.0010000
    -0.1212255  -0.5507309  -0.1944745   0.0010000
    -0.2180259  -0.5265697  -0.3819968   0.0010000
    -0.3514495  -0.3153179  -0.5335259   0.0010000
     0.1350445   0.5493308   0.2230069   0.0010000
    -0.0275245  -0.3555031  -0.9565358   0.0010000
    -0.3223528  -0.6610646  -0.1951870   0.0010000
     0.0618824   0.7344772   0.0417338   0.0010000
    -0.4394513  -0.7725928   0.0934910   0.0010000
    -0.1902091  -0.2836091   0.5117862   0.0010000
     0.3159721   0.7335210   0.4434640   0.0010000
     0.3921412   0.2101097   0.5459923   0.0010000
    -0.0419288   0.3532286  -0.9367849   0.0010000
    -0.2543666   0.2694079   0.2506310   0.0010000
    -0.5016123  -0.5000737  -0.2210797   0.0010000
     0.1044639  -0.3282247   0.0532591   0.0010000
    -0.1781396   0.4941188   0.6910104   0.0010000
     0.3656473  -0.5510395   0.4458755   0.0010000
     0.2571918   0.3613019   0.1557410   0.0010000
     0.9344054  -0.2380471  -0.3060652   0.0010000
     0.3025591  -0.1545489  -0.8172427   0.0010000
     0.3467100  -0.2495396   0.1376567   0.0010000
    -0.4691816   0.3600895  -0.1981547   0.0010000
     0.3555061   0.4617215  -0.2968984   0.0010000
    -0.1784059  -0.5737574   0.4599760   0.0010000
     0.5908602   0.3654282  -0.2659998   0.0010000
     0.2622075  -0.5957319   0.4568473   0.0010000
    -0.2448433   0.0585379  -0.9355630   0.0010000
     0.5819636  -0.0349574   0.5228833   0.0010000
     0.5594535   0.3052619   0.2284115   0.0010000
     0.5314119   0.1870507   0.6801931   0.0010000
     0.1261503   0.1622904  -0.1121102   0.0010000
    -0.2060723   0.2801894  -0.1902367   0.0010000
     0.0626512   0.4908241  -0.5233574   0.0010000
     0.5117399   0.1231327  -0.6468798   0.0010000
    -0.0205656   0.0193398   0.4325187   0.0010000
     0.4262398  -0.7713968  -0.1033519   0.0010000
    -0.4797223  -0.0124793   0.1537763   0.0010000
    -0.0965771  -0.6696011   0.5291260   0.0010000
    -0.1809806  -0.9110767  -0.3484797   0.0010000
    -0.5668643  -0.0722971  -0.0380630   0.0010000
    -0.2995038  -0.5708616   0.1663960   0.0010000
     0.4093823  -0.1537960  -0.5941213   0.0010000
     0.5646118   0.3158392   0.4976326   0.0010000
     0.4287355   0.3364555   0.6003057   0.0010000
    -0.2904640   0.4874799  -0.3359403   0.0010000
    -0.1164801   0.2176125  -0.9471259   0.0010000
    -0.8167816  -0.0391189  -0.5631363   0.0010000
     0.1681243   0.0545639   0.6997155   0.0010000
    -0.1542608   0.3369483  -0.0423204   0.0010000
    -0.1375340  -0.3891117  -0.8506680   0.0010000
     0.6695571  -0.3108233   0.3800395   0.0010000
     0.1826235   0.2540482  -0.6648569   0.0010000
     0.8913259   0.0117704   0.4378763   0.0010000
     0.8962522   0.1627460   0.1314141   0.0010000
     0.3185309  -0.4304765  -0.4919176   0.0010000
    -0.5100704   0.1355552   0.3734273   0.0010000
     0.2924252  -0.8133273   0.0720317   0.0010000
    -0.2187090   0.2099942   0.8324761   0.0010000
     0.6330940  -0.3418545   0.4413552   0.0010000
     0.1923140  -0.4067007   0.3660224   0.0010000
     0.0189171   0.3076308  -0.4272583   0.0010000
    -0.4202378   0.3008625   0.1903642   0.0010000
    -0.3705142   0.1311161   0.3389650   0.0010000
    -0.5276816   0.5182058   0.2210516   0.0010000
    -0.0026248  -0.5140429   0.4507900   0.0010000
     0.0423348  -0.2238644   0.4073468   0.0010000
     0.9108797  -0.0558233  -0.4862558   0.0010000
     0.2296788   0.2592152  -0.7664713   0.0010000
    -0.0802343  -0.2754463  -0.2792369   0.0010000
     0.3455451   0.7268281  -0.1532233   0.0010000
     0.6018596  -0.5601212  -0.0341859   0.0010000
    -0.6400031   0.3384603  -0.2964592   0.0010000
    -0.2555880  -0.3021785   0.0951057   0.0010000
     0.2704120   0.0531649  -0.0483889   0.0010000
    -0.2582973  -0.8568934   0.0753567   0.0010000
     0.1892835  -0.0322606  -0.7727587   0.0010000
    -0.1290448   0.5345558  -0.5890683   0.0010000
    -0.8055871   0.1827065  -0.1608787   0.0010000
     0.4460465  -0.6098646   0.0065497   0.0010000
     0.3333208  -0.1179588  -0.3047382   0.0010000
     0.0845082   0.1843168   0.3613571   0.0010000
    -0.5958533   0.0191806  -0.5208853   0.0010000
    -0.7639368  -0.1233655  -0.1372710   0.0010000
    -0.5187988  -0.6185837   0.2182716   0.0010000
    -0.0272217   0.5603846  -0.8223591   0.0010000
    -0.1297833  -0.5963857   0.2653932   0.0010000
    -0.6763976   0.3895268   0.2508103   0.0010000
    -0.7072362  -0.6040989   0.0105140   0.0010000
    -0.5794880   0.5745785  -0.1918499   0.0010000
     0.1184842  -0.4587094   0.3576230   0.0010000
     0.0017901   0.8595043  -0.1359977   0.0010000
    -0.5156412   0.2500718  -0.6601586   0.0010000
    -0.4749489  -0.5108967  -0.3068115   0.0010000
     0.2922374  -0.5024714  -0.3311104   0.0010000
     0.0451493  -0.3616099   0.4289643   0.0010000
    -0.2592159   0.2447814   0.8877011   0.0010000
     0.1519780   0.0362749  -0.9807703   0.0010000
    -0.2126537   0.2579297   0.3186173   0.0010000
     0.3433101   0.0215743   0.5899239   0.0010000
    -0.4322619   0.0843505  -0.6047090   0.0010000
     0.4076231   0.0766233   0.1801410   0.0010000
    -0.4334577   0.5001571  -0.4731642   0.0010000
    -0.2003022  -0.7964740  -0.0289350   0.0010000
    -0.4269016  -0.3014750   0.6933686   0.0010000
     0.3425035   0.0075812  -0.8452652   0.0010000
     0.7789181  -0.0998435   0.3096355   0.0010000
     0.4930682   0.0270579  -0.0272689   0.0010000
     0.6711326   0.5305587  -0.2364603   0.0010000
    -0.2365781  -0.2231290   0.9575619   0.0010000
     0.7359727   0.5116132   0.2126571   0.0010000
    -0.3526808  -0.7322989   0.2699127   0.0010000
    -0.1742474  -0.4735903   0.2489377   0.0010000
    -0.5811499   0.5249331  -0.1886309   0.0010000
    -0.5145891  -0.2210191   0.2052721   0.0010000
     0.2554682  -0.7636573   0.1961483   0.0010000
    -0.5784670   0.7558992  -0.0373561   0.0010000
    -0.9207481   0.1574097   0.0532351   0.0010000
    -0.2121930   0.5872536   0.5183269   0.0010000
    -0.8210195  -0.1106398   0.1655007   0.0010000
     0.1587473  -0.0346001   0.8235905   0.0010000
    -0.0419994   0.3599388  -0.8998215   0.0010000
     0.5985430   0.1814001   0.6585727   0.0010000
     0.8655827   0.3589294   0.2128305   0.0010000
     0.2455930  -0.2061940  -0.0772799   0.0010000
     0.0564301   0.7914557  -0.6078644   0.0010000
     0.2975177  -0.1793285  -0.6611623   0.0010000
    -0.0807800   0.0601404  -0.9287310   0.0010000