 &control
    title = 'Si100 c4x2 12L'
    calculation = 'nscf'
    pseudo_dir = '/fermi/home/userexternal/chogan00/UPF/'
    wfcdir='./tmp/'
    outdir='./'
    prefix='si100-c4x2-out',
    wf_collect=.true.
    verbosity = 'high'
 /
 &system    
      ibrav=0, 
      celldm(1)=10.191,
      nat=48, 
      ntyp=1,
      ecutwfc = 13.0, 
      nbnd=200
 /
 &electrons
    diago_thr_init=5.0e-6,
    diago_full_acc=.true.
    electron_maxstep = 150,
    diagonalization='david'
    mixing_mode = 'plain'
    mixing_beta = 0.3 
    conv_thr =  1.0d-8,
 /
ATOMIC_SPECIES
 Si  28.086  Si.pz-vbc.UPF
CELL_PARAMETERS
     1.41421356237309504880   -0.70710678118654752440  0.0000000000000000
     1.41421356237309504880   +0.70710678118654752440  0.0000000000000000
     0.0000000000000000    0.0000000000000000    5.500000000000000
ATOMIC_POSITIONS (alat)
Si       0.058483778  -0.353550487   1.400746562
Si      -0.412253264   0.353559791   1.400217812
Si      -0.004549906   0.353555531   1.264263792
Si      -0.348737390  -0.353548403   1.263819037
Si       0.159470312  -0.021965964   1.133905614
Si       0.159470422   0.729077866   1.133906208
Si      -0.512717251   0.021986789   1.133136089
Si      -0.512714919   0.685129904   1.133130434
Si      -0.176264890   0.000005499   0.854592418
Si      -0.176261628   0.707096314   0.854590076
Si       0.530221116  -0.002540679   0.899034027
Si       0.530221725   0.709646646   0.899035876
Si      -0.178134980   0.353550222   0.612630423
Si      -0.175581681  -0.353554984   0.612830000
Si       0.530529076   0.353553637   0.640912568
Si       0.530467681  -0.353554708   0.636456488
Si       0.176776681   0.353553400   0.375000000    0   0   0
Si       0.176776681  -0.353553400   0.375000000    0   0   0
Si      -0.530330119   0.353553400   0.375000000    0   0   0
Si      -0.530330119  -0.353553400   0.375000000    0   0   0
Si       0.176776681   0.000000000   0.125000000    0   0   0
Si       0.176776681   0.707106800   0.125000000    0   0   0
Si      -0.530330119   0.000000000   0.125000000    0   0   0
Si      -0.530330119   0.707106800   0.125000000    0   0   0
Si      -0.176776681   0.000000000  -0.125000000    0   0   0
Si      -0.176776681  -0.707106800  -0.125000000    0   0   0
Si       0.530330119   0.000000000  -0.125000000    0   0   0
Si       0.530330119  -0.707106800  -0.125000000    0   0   0
Si      -0.176776681   0.353553400  -0.375000000    0   0   0
Si      -0.176776681  -0.353553400  -0.375000000    0   0   0
Si       0.530330119   0.353553400  -0.375000000    0   0   0
Si       0.530330119  -0.353553400  -0.375000000    0   0   0
Si       0.175581681   0.353554984  -0.612830000
Si       0.178134980  -0.353550222  -0.612630423
Si      -0.530467681   0.353554708  -0.636456488
Si      -0.530529076  -0.353553637  -0.640912568
Si       0.176264890  -0.000005499  -0.854592418
Si       0.176261628  -0.707096314  -0.854590076
Si      -0.530221116   0.002540679  -0.899034027
Si      -0.530221725  -0.709646646  -0.899035876
Si      -0.159470312   0.021965964  -1.133905614
Si      -0.159470422  -0.729077866  -1.133906208
Si       0.512717251  -0.021986789  -1.133136089
Si       0.512714919  -0.685129904  -1.133130434
Si       0.004549906  -0.353555531  -1.264263792
Si       0.348737390   0.353548403  -1.263819037
Si      -0.058483778   0.353550487  -1.400746562
Si       0.412253264  -0.353559791  -1.400217812
K_POINTS {automatic}
2 2 1 1 1 0
