&control
        restart_mode = 'from_scratch'
              outdir = './'
          wf_collect = .true.
              prefix = 'bn_s'
         calculation = 'scf'
          pseudo_dir = './'
            verbosity='high'
/&end
&system
             ecutwfc = 20.0
                 nat = 24
               ibrav = 0
                ntyp = 2
           celldm(1) = 4.72431525
               nbnd = 50
/&end
&electrons
            conv_thr = 1.0d-8
/&end
CELL_PARAMETERS { alat }
  0.0000000000   1.7320508076   2.6000000000 
 -1.5000000000   2.5980762114   2.6000000000 
  0.0000000000   0.0000000000   5.2000000000 
ATOMIC_SPECIES
   N   14.006         N.pz-vbc.UPF
   B   10.811         B.pz-vbc.UPF
ATOMIC_POSITIONS { crystal }
  B   0.6666666667  -0.3333333333  -0.2916666667
  N  -0.6666666667   0.3333333333   0.0416666667
  N   0.6666666667  -0.3333333333  -0.0416666667
  B  -0.6666666667   0.3333333333   0.2916666667
  B   0.6666666667   0.0000000000  -0.4583333333
  N  -0.6666666667   0.6666666667  -0.1250000000
  N   0.6666666667   0.0000000000  -0.2083333333
  B  -0.6666666667   0.6666666667   0.1250000000
  B   0.6666666667   0.3333333333  -0.6250000000
  N  -0.6666666667   1.0000000000  -0.2916666667
  N   0.6666666667   0.3333333333  -0.3750000000
  B  -0.6666666667   1.0000000000  -0.0416666667
  B   0.6666666667  -0.3333333333   0.2083333333
  N  -0.6666666667   0.3333333333   0.5416666667
  N   0.6666666667  -0.3333333333   0.4583333333
  B  -0.6666666667   0.3333333333   0.7916666667
  B   0.6666666667   0.0000000000   0.0416666667
  N  -0.6666666667   0.6666666667   0.3750000000
  N   0.6666666667   0.0000000000   0.2916666667
  B  -0.6666666667   0.6666666667   0.6250000000
  B   0.6666666667   0.3333333333  -0.1250000000
  N  -0.6666666667   1.0000000000   0.2083333333
  N   0.6666666667   0.3333333333   0.1250000000
  B  -0.6666666667   1.0000000000   0.4583333333
K_POINTS { automatic }
 6  2  1  0  0  0
