&control
           verbosity = 'high'
          pseudo_dir = './'
         calculation = 'scf'
              prefix = 'bn_s'
        restart_mode = 'from_scratch'
              outdir = './'
          wf_collect = .true.
/&end
&system
                ntyp = 2
               ibrav = 0
             ecutwfc = 20.0
           celldm(1) = 4.72431525
                 nat = 24
                nbnd = 50
/&end
&electrons
            conv_thr = 1.0d-8
/&end
CELL_PARAMETERS { alat }
  1.5000000000   0.8660254038   0.0000000000 
 -1.5000000000   2.5980762114   0.0000000000 
  0.0000000000   0.0000000000   2.6000000000 
ATOMIC_SPECIES
   B   10.811         B.pz-vbc.UPF
   N   14.006         N.pz-vbc.UPF
ATOMIC_POSITIONS { crystal }
  B   0.3333333333   0.0000000000  -0.2500000000
  N  -0.3333333333  -0.0000000000  -0.2500000000
  N   0.3333333333   0.0000000000   0.2500000000
  B  -0.3333333333  -0.0000000000   0.2500000000
  B   0.8333333333  -0.1666666667  -0.2500000000
  N   0.1666666667  -0.1666666667  -0.2500000000
  N   0.8333333333  -0.1666666667   0.2500000000
  B   0.1666666667  -0.1666666667   0.2500000000
  B   0.3333333333   0.3333333333  -0.2500000000
  N  -0.3333333333   0.3333333333  -0.2500000000
  N   0.3333333333   0.3333333333   0.2500000000
  B  -0.3333333333   0.3333333333   0.2500000000
  B   0.8333333333   0.1666666667  -0.2500000000
  N   0.1666666667   0.1666666667  -0.2500000000
  N   0.8333333333   0.1666666667   0.2500000000
  B   0.1666666667   0.1666666667   0.2500000000
  B   0.3333333333   0.6666666667  -0.2500000000
  N  -0.3333333333   0.6666666667  -0.2500000000
  N   0.3333333333   0.6666666667   0.2500000000
  B  -0.3333333333   0.6666666667   0.2500000000
  B   0.8333333333   0.5000000000  -0.2500000000
  N   0.1666666667   0.5000000000  -0.2500000000
  N   0.8333333333   0.5000000000   0.2500000000
  B   0.1666666667   0.5000000000   0.2500000000
K_POINTS { automatic }
  3  2  2  0  0  0
