 &control
    calculation = 'nscf',prefix='Al',
    pseudo_dir = '.',
    wf_collect=.true.
    verbosity='high'
 /
 &system
    ibrav=  2, celldm(1) =7.50, nat=  1, ntyp= 1,ecutwfc = 16, nbnd = 20
    occupations='smearing', smearing='mp', degauss=0.022
    force_symmorphic=.true.
 /
 &electrons
 /
ATOMIC_SPECIES
 Al  26.98  Al.vbc.UPF
ATOMIC_POSITIONS
 Al 0.00 0.00 0.00
K_POINTS {automatic}
  4 4 4 0 0 0
