&inputph
           verbosity = 'high'
              tr2_ph = 1e-12
              prefix = 'Al'
            fildvscf = 'Al-dvscf'
              fildyn = 'Al.dyn'
     electron_phonon = 'dvscf',
               trans = .true.
               ldisp = .false.
               qplot = .true.
/
8
       0.000000000  0.000000000  0.000000000 1
       0.249999985  -0.249999985 0.249999985 1
      -0.499999970  0.499999970  -0.499999970 1
       0.000000000  -0.499999970  0.000000000 1
       0.249999985  -0.749999881 0.249999985 1
      -0.499999970  0.000000000  -0.499999970 1
       0.000000000  1.000000000  0.000000000 1
       0.499999911  1.000000000  0.000000000 1

