 &control
    calculation = 'scf',prefix='Al',
    pseudo_dir = '.',
    wf_collect=.true.
 /
 &system
    ibrav=  2, celldm(1) =7.50, nat=  1, ntyp= 1,ecutwfc = 16, nbnd = 20
    occupations='smearing', smearing='mp', degauss=0.022
 /
 &electrons
 /
ATOMIC_SPECIES
 Al  26.98  Al.vbc.UPF
ATOMIC_POSITIONS
 Al 0.00 0.00 0.00
K_POINTS {automatic}
  8 8 8 1 1 1
