 &control
          wf_collect = .true.,
         calculation = "scf",
           verbosity = 'high',
          pseudo_dir = '.',
              prefix = "mos2",
              outdir = '.',
 /&end
 &system
                nbnd = 13,
             ecutwfc = 60.0,
         occupations = 'fixed',
           celldm(1) = 5.877207636,
               ibrav = 4,
           celldm(3) = 5.1044648850,
               nspin = 2,
   tot_magnetization = 0.,
                 nat = 3,
                ntyp = 2,
 /&end
 &electrons
    electron_maxstep = 200,
         mixing_beta = 0.7,
            conv_thr = 1.d-12,
 /&end
  ATOMIC_SPECIES
  Mo   95.940  Mo_SR_withPS_PZ.UPF
   S   32.065  S.pz-hgh.UPF
  ATOMIC_POSITIONS { crystal }
  Mo 0.333333333 0.666666667 0.000000000
   S 0.666666667 0.333333333 0.097783324
   S 0.666666667 0.333333333 -0.097783324
  K_POINTS { automatic }
3 3 1  0 0 0
