&control
              prefix = 'NiBr2'
          pseudo_dir = '../../pseudo'
           verbosity = 'high'
          wf_collect = .true.
/&end
&system
           celldm(1) = 6.9451076104
           celldm(3) = 3.5996562475955844
             degauss = 0.005
             ecutwfc = 70
               ibrav = 4
            lspinorb = .false.
                 nat = 3
            noncolin = .false.
               nspin = 2
                ntyp = 2
         occupations = 'smearing'
starting_magnetization(1) = 1
starting_magnetization(2) = 0
/&end
&electrons
            conv_thr = 1e-08
/&end


ATOMIC_SPECIES
  Ni  58.6934               Ni.upf
  Br   79.904               Br.upf
ATOMIC_POSITIONS { crystal }
 Ni   0.0000000000   0.0000000000   0.0000000000
 Br   0.6666666700   0.3333333300   0.1038888250
 Br   0.3333333300   0.6666666700  -0.1038888250
K_POINTS { automatic }
  3  3  1  0  0  0
