 &control
    calculation = 'nscf',
    prefix='Si_shift1_nscf',
    pseudo_dir = './',
    wf_collect=.true.,
    verbosity ='high'
 /
 &system
    ibrav=  2,
    celldm(1) =10.183, celldm(2) =0, celldm(3) =0, force_symmorphic=.true.
    nat=  2, ntyp= 1, ecutwfc = 15, nbnd = 32
 /
 &electrons
    diago_full_acc=.TRUE.,
    conv_thr = 1.0d-10
 /
ATOMIC_SPECIES
 Si 28.086 Si.vbc.UPF
ATOMIC_POSITIONS (alat)
 Si 0.0000000000 0.0000000000  0.0000000000
 Si 0.2500000000 0.2500000000  0.2500000000
K_POINTS {alat}
 10
        -0.1249190    0.1250000    0.1250000    1.0000000
        -0.3749190    0.3750000   -0.1250000    1.0000000
         0.3750810   -0.3750000    0.6250000    1.0000000
         0.1250810   -0.1250000    0.3750000    1.0000000
        -0.1249190    0.6250000    0.1250000    1.0000000
         0.6250811   -0.1250000    0.8749999    1.0000000
         0.3750810    0.1250000    0.6250000    1.0000000
        -0.1249190   -0.8749999    0.1250000    1.0000000
        -0.3749190    0.3750000    0.3750000    1.0000000
         0.3750810   -0.3750000    1.1250000    1.0000000
