 &control
    calculation = 'nscf', prefix='Si_FineGd', pseudo_dir = './',
    restart_mode= 'restart',
    wf_collect=.true.,
    verbosity ='high',
 /
 &system
    ibrav=  2, 
    celldm(1) =10.183, celldm(2) =0, celldm(3) =0, 
    nat=  2, ntyp= 1, ecutwfc = 15, nbnd = 8,
 /
 &electrons
    diago_full_acc=.TRUE.,
    conv_thr = 1.0d-10
 /
ATOMIC_SPECIES
 Si 28.086 Si.vbc.UPF
ATOMIC_POSITIONS {alat}
 Si 0.0000000000 0.0000000000  0.0000000000 
 Si 0.2500000000 0.2500000000  0.2500000000 
K_POINTS
     100
     0.0000000   0.0000000   0.0000000   0.0100000
     0.2077540  -0.2494016  -0.4206825   0.0100000
    -0.3900619  -0.6283295  -0.2316244   0.0100000
    -0.3053675  -0.5404936  -0.6343818   0.0100000
    -0.0127099   0.5419680   0.2659030   0.0100000
     0.2195809   0.3295605   0.6741101   0.0100000
     0.0901425   0.0437605   0.4163168   0.0100000
    -0.4242286  -0.3609034  -0.5307341   0.0100000
    -0.2871951  -0.4752713  -0.4171822   0.0100000
     0.3170669   0.0912477  -0.1682510   0.0100000
    -0.0605640  -0.3656806  -0.4277517   0.0100000
    -0.1115838   0.0202999   0.3369533   0.0100000
     0.3766490   0.2143586  -0.2395185   0.0100000
     0.1341290   0.5847422   0.2243726   0.0100000
    -0.3403914  -0.3943427   0.0180244   0.0100000
    -0.2215977  -0.4904104  -0.0703586   0.0100000
     0.0396802   0.0301578   0.3235254   0.0100000
    -0.2637046  -0.3269550   0.2001992   0.0100000
     0.3883418   0.0670112  -0.1281921   0.0100000
     0.4634617   0.3768027  -0.1328611   0.0100000
     0.3010405   0.2063238   0.4569410   0.0100000
    -0.4914747   0.2136688  -0.2287080   0.0100000
     0.0629550   0.4454428  -0.2079037   0.0100000
     0.0150847   0.4256482   0.4270766   0.0100000
    -0.2212753   0.3551946   0.3368834   0.0100000
     0.1430354  -0.2985126  -0.4822037   0.0100000
     0.4256913   0.4373262   0.1205592   0.0100000
     0.2229946   0.1879642   0.2127482   0.0100000
    -0.0604640   0.0987673   0.1214699   0.0100000
     0.0335783   0.0479496  -0.0005794   0.0100000
    -0.1923963  -0.3583544  -0.2486262   0.0100000
    -0.3351924   0.1352435  -0.1987402   0.0100000
     0.2099674  -0.4101489  -0.1853597   0.0100000
     0.0038847   0.3054534  -0.3730703   0.0100000
    -0.1351278  -0.2342254   0.0996432   0.0100000
     0.0132958   0.1113448  -0.0370870   0.0100000
     0.6940306   0.2487956   0.3845493   0.0100000
    -0.4606217  -0.5408951  -0.1573991   0.0100000
    -0.1978480  -0.0804142   0.1332176   0.0100000
    -0.0516666   0.2278417  -0.2764102   0.0100000
     0.3034749   0.1117410  -0.0333774   0.0100000
    -0.6503392  -0.3654220  -0.1891737   0.0100000
     0.4617329   0.3215391   0.5151883   0.0100000
    -0.5280634  -0.0624813  -0.0789986   0.0100000
    -0.5953880  -0.2563516  -0.4302692   0.0100000
    -0.2884842   0.1947631  -0.1997920   0.0100000
     0.0942439  -0.4723040  -0.2871462   0.0100000
     0.3746987   0.2714853   0.0298659   0.0100000
    -0.3115633   0.3858588   0.0412779   0.0100000
    -0.0748260  -0.0463197  -0.0315395   0.0100000
    -0.4842710  -0.3917437  -0.5525482   0.0100000
     0.2422470   0.4006099   0.6972791   0.0100000
     0.1113017   0.3054818   0.4927345   0.0100000
    -0.5927997  -0.3918476   0.0130847   0.0100000
     0.3065495  -0.1668725  -0.1782167   0.0100000
    -0.3570393  -0.3781450   0.1846133   0.0100000
     0.4164239   0.3643804   0.0506679   0.0100000
     0.2384617  -0.2896789  -0.4540217   0.0100000
     0.0790868   0.4350470   0.3543901   0.0100000
    -0.3249896   0.1840008   0.0530782   0.0100000
    -0.3336330  -0.4491884  -0.4610257   0.0100000
    -0.0678847   0.0616491   0.2607824   0.0100000
    -0.2569870  -0.3072085   0.2035787   0.0100000
     0.2936215   0.4145439   0.0035124   0.0100000
    -0.1222894   0.2887316   0.1252087   0.0100000
     0.0812594   0.0359405  -0.0903038   0.0100000
    -0.0116610   0.4648887   0.0666687   0.0100000
    -0.0397390  -0.5003636  -0.4161162   0.0100000
     0.4857783   0.1802990   0.4369915   0.0100000
     0.4357319   0.5195203   0.4636139   0.0100000
    -0.5030793  -0.2971359  -0.6762342   0.0100000
     0.0760442  -0.1388486   0.0572698   0.0100000
    -0.0360843  -0.3819550   0.2828235   0.0100000
    -0.3606389   0.1253951   0.0176079   0.0100000
     0.0419625   0.4292925   0.4454982   0.0100000
     0.0539220  -0.0212862   0.3756065   0.0100000
     0.2127588   0.3464396  -0.2453485   0.0100000
    -0.1203393   0.0793721   0.1948784   0.0100000
    -0.2483003  -0.0233409  -0.2651320   0.0100000
     0.1700382   0.0791732  -0.0228535   0.0100000
    -0.1953937   0.2300009  -0.2434475   0.0100000
     0.3583977   0.4241002  -0.0817942   0.0100000
     0.2572263   0.4951258   0.1090600   0.0100000
    -0.3140841  -0.5290750  -0.1848002   0.0100000
     0.0507548  -0.3814120   0.2543326   0.0100000
    -0.1694832   0.4261888   0.1305139   0.0100000
    -0.1752548   0.1476424  -0.4179417   0.0100000
     0.0716737   0.2950449   0.1792326   0.0100000
     0.1398704  -0.0380749  -0.1159636   0.0100000
    -0.7225673  -0.4636531  -0.2226945   0.0100000
     0.2487262   0.0662957  -0.1323453   0.0100000
     0.1582333  -0.2912021  -0.2163521   0.0100000
     0.0075214  -0.3633737  -0.1472845   0.0100000
    -0.3743685  -0.0727721   0.2852932   0.0100000
     0.3639406  -0.1587576   0.3192463   0.0100000
     0.1252634   0.3690722   0.3214347   0.0100000
    -0.3747518  -0.0181127  -0.0783312   0.0100000
    -0.4103445   0.2527437  -0.1945750   0.0100000
     0.3804659   0.5998814   0.2420897   0.0100000
    -0.4366620  -0.3469485   0.0062238   0.0100000
