Phonons on a uniform grid
&inputph
  tr2_ph=1.0d-14
  prefix='si'
  ldisp=.true.
  epsil=.true.
  lqdir = .true.
  outdir='./'
  fildyn  = 'si.dyn'
  fildvscf = 'dvscf'
  nq1=8, nq2=8, nq3=8,
  nk1=16, nk2=16, nk3=16
/
