hchain_dvscf
&inputph
  tr2_ph=1.0d-12,
  verbosity='high'
  prefix='hchain',
  fildvscf = 'hchain-dvscf',
  electron_phonon = 'dvscf',
  fildyn='hchain.dyn',
  epsil=.false.,
  trans=.true.,
  ldisp=.false.,
  qplot=.true.
/
4
  0.0000000   0.0000000   0.0000000 1
 -0.1666667   0.0000000   0.0000000 1
 -0.3333333   0.0000000   0.0000000 1
  0.5000000   0.0000000   0.0000000 1
