hchain_dvscf
&inputph
  verbosity='high'
  tr2_ph=1.0d-12,
  prefix='hchain',
  fildvscf = 'hchain-dvscf',
  fildyn='hchain.dyn'
  outdir='./',
  electron_phonon = 'yambo',
  epsil = .false.,
  trans = .false.,
  ldisp = .false.,
  qplot = .true.
  diagonalization='david'
/
4
  0.0000000   0.0000000   0.0000000 1
 -0.1666667   0.0000000   0.0000000 1
 -0.3333333   0.0000000   0.0000000 1
  0.5000000   0.0000000   0.0000000 1
