ndtset 2

nstep1 100
toldfe1 1.0d-12
kptopt1  1        # Option for the automatic generation of k points
nshiftk1 1
shiftk1  0 0 0
ngkpt1 12 12 6
prtden1 1
occopt1 3
tsmear1 0.01
enunit1 1
prteig1 1
prtvol1 3
nband1 10


nstep2 100
symmorphi2 0
iscf2    -2
kptopt2  1        # Option for the automatic generation of k points
nband2   10
nbandkss2 -1
kssform2 3
tolwfr2  1.0d-10
nshiftk2 1
shiftk2 0 0 0
ngkpt2 24 24 8
istwfk2 305*1
prtvol2 3
prteig2 1
enunit2 1
occopt2 3
tsmear2 0.01
getden2 -1



#Definition of the planewave basis set
ecut   25.0        # Minimal kinetic energy cut-off, in Hartree

acell 4.66728 4.66728 4.66728
rprim    1.00000000000000   0.000000000000000   0.00000000000000
        -0.50000000000000   0.866025403784439   0.00000000000000
         0.00000000000000   0.000000000000000  1.7713861371

ntypat  1
znucl   6
natom   2
typat   1 1
xcart
0.0000000000   0.000000000   0.0000000
2.333640 1.3473276840 0.0
