&inputph
           verbosity = 'high'
              tr2_ph = 1e-12
              prefix = 'si'
            fildvscf = 'si-dvscf'
              fildyn = 'si.dyn'
     electron_phonon = 'yambo',
               epsil = .true.
               trans = .false.
               ldisp = .false.
               qplot = .true.
/
8
-0.0  -0.0  -0.0  1
-0.124999978  -0.124999978  0.124999993  1
0.249999955  0.249999955  -0.249999985  1
-0.249999955  -0.0  -0.0  1
-0.37500006  -0.12500006  0.12500006  1
-0.0  0.249999955  -0.249999985  1
0.499999911  -0.0  -0.0  1
0.499999911  -0.249999985  -0.0  1
