 &control
    calculation = 'nscf',
    prefix='si', 
    pseudo_dir = '../../pseudo',
    wf_collect=.true.,
    verbosity ='high'
 /
 &system
    ibrav=  0,
    celldm(1) =5.09150
    nat=  2, 
    ntyp= 1, 
    ecutwfc = 40
    nbnd=12
    force_symmorphic= .TRUE.,
 /
 &electrons
   diago_thr_init=1.D-6 
 /
ATOMIC_SPECIES
 Si 28.086 Si.vbc.UPF
ATOMIC_POSITIONS {crystal}
 Si 0 0  0
 Si 0.25 0.25  0.25
CELL_PARAMETERS alat
0.0  1.0  1.0
1.0  0.0  1.0
1.0  1.0  0.0
K_POINTS {automatic}
4 4 4 0 0 0 
