 &control
    calculation = 'nscf'
    prefix='bn_nscf_shifted',
    pseudo_dir = './psps',
    outdir='./'
    verbosity='high'
    wf_collect=.true.
 /
 &system    
    ibrav=  4 
    celldm(1) = 4.72431525 
    celldm(3) = 4.23341774 
    nat=  2
    ntyp= 2
    ecutwfc = 60.0 
    nbnd=10
    force_symmorphic=.true.
 /
 &electrons
   diago_thr_init =  1.0d-7
 /
ATOMIC_SPECIES 
 B 1.0  B.pz-vbc.UPF     
 N 1.0  N.pz-vbc.UPF 
ATOMIC_POSITIONS crystal 
 B     6.6666666666E-01  3.3333333333E-01  0.000000000E+00
 N     -6.6666666666E-01 -3.3333333333E-01 0.000000000E+00
K_POINTS crystal
14
   0.0000000   0.0000000   0.0000000   0.0089286
   0.0000000   0.2500000   0.0000000   0.0535714
   0.0000000  -0.5000000   0.0000000   0.0267857
   0.2500000   0.2500000   0.0000000   0.0535714
   0.1000000  -0.1000000   0.0000000   0.0535714
   0.3500000   0.1500000   0.0000000   0.1071429
  -0.1500000   0.4000000   0.0000000   0.1071429
   0.1000000   0.4000000   0.0000000   0.1071429
  -0.1500000   0.1500000   0.0000000   0.0535714
   0.3500000  -0.1000000   0.0000000   0.1071429
   0.6000000  -0.3500000   0.0000000   0.1071429
   0.3500000  -0.3500000   0.0000000   0.0535714
  -0.4000000   0.4000000   0.0000000   0.0535714
   0.1000000   0.1500000   0.0000000   0.1071429  
