
 &CONTROL
    calculation = 'nscf'
    restart_mode='from_scratch'
    prefix='chevron-poly',
    etot_conv_thr=1.D-5
    forc_conv_thr=5.D-4
    tstress=.TRUE.
    pseudo_dir = './'
    outdir = './'
    nstep=200
    verbosity = "high"
    wf_collect = .TRUE.
 /
 &SYSTEM
      ibrav=8,
      celldm(1)=32.11364
      celldm(2)=    2.055201466
      celldm(3)=    1.245576646
      nat=136,
      ntyp=2,
      ecutwfc=45.0,
      nbnd=1200
 /
 &ELECTRONS
      electron_maxstep = 100,
      conv_thr = 1.0d-8
      mixing_mode = 'plain'
      mixing_beta = 0.3d0
 /
 &IONS
     ion_dynamics='bfgs'
 /
ATOMIC_SPECIES
C   12.011    C.pz-vbc.UPF
H    1.008    H.pz-vbc.UPF
ATOMIC_POSITIONS (angstrom)
H       -5.469610782  -6.939323346  -1.921558263
H       -3.015922437  -6.958315305  -1.885093499
H        5.459443927   6.958548060  -1.947126762
H        7.634275407   5.025969919  -1.698166450
H       -0.848343795  -5.044407959  -1.617001875
H       -7.642435540  -5.047012599  -1.647221466
H        0.867500547   5.024538797  -1.728119989
H        3.015145593   6.934222491  -1.978781695
H        0.925129054   2.094562308  -1.373968509
H       -0.931095656  -2.108505663  -1.339507533
C        0.725760030  -0.008644182  -1.104954901
H        7.563998504   2.089332567  -1.375503954
C       -0.734656529  -0.000519294  -1.107756304
C        1.455641279   1.166991931  -1.159339508
C       -1.462959838  -1.177790038  -1.142564348
H        1.460570775  -5.361717230  -0.797596777
H       -7.573239909  -2.113826678  -1.340270660
H       -1.448851968   5.371718745  -0.941334791
H        0.905951369  -2.151210116  -0.801036738
C        1.433298684  -1.195040430  -0.895152746
C        7.032926317   1.162221004  -1.160346534
H       -0.918911533   2.147328165  -0.846820427
H       -7.590480151   2.141668593  -0.846385511
C       -7.771811215  -0.006214815  -1.108637662
C       -1.444674627   1.188666789  -0.923373707
H        9.949564350   5.358755883  -0.902229394
C       -7.042050462  -1.182687908  -1.143474904
C        7.761517621  -0.014228015  -1.106410987
C       -7.063546544   1.183784690  -0.923382791
H       -5.181585855   2.129156851  -0.716449939
H       -9.953764919  -5.375090743  -0.838257182
C       -5.702126189   1.171265377  -0.816986127
C        2.827525810   1.226447067  -0.912542309
C        2.794579031  -1.180821144  -0.786552468
C       -2.835019313  -1.234709164  -0.896983090
C       -2.806310622   1.174293459  -0.817825474
C        7.052263085  -1.199823811  -0.897425922
C        5.661549439   1.223356306  -0.912062490
C       -4.969855946  -0.018763033  -0.810717157
C       -3.536833684  -0.016949861  -0.810628992
C       -5.669562653  -1.237984517  -0.898430672
C        3.527041633   0.008997588  -0.801966717
H        3.314852517  -2.136724469  -0.667292097
H        7.578471595  -2.156783496  -0.804370836
C       -0.521482459  -4.544019423  -0.698911663
C        0.528226112   4.547805693  -0.801965743
C       -5.844523810  -7.113799438  -0.906094664
C        5.690848359  -1.183784957  -0.788771969
H       -3.328319342   2.131550700  -0.718875185
C        7.970112516   4.538432682  -0.776365252
C        4.960099693   0.007265798  -0.802434849
C        5.843759621   7.116779640  -0.932643879
C       -2.640845550  -7.116873316  -0.867130606
C       -7.973385026  -4.554830234  -0.726188049
H        5.169191257  -2.139119067  -0.670983527
C        3.536113244   2.481001926  -0.717044278
C        4.955610153   2.478857886  -0.714602936
C       -3.541096149  -2.487023024  -0.681299970
C       -4.960563338  -2.489328307  -0.684190376
C       -6.514659268  -8.284775006  -0.605775363
C        2.645315588   7.108789206  -0.961491883
C        0.768490833  -4.726253834  -0.234214909
C       -0.765783958   4.746733255  -0.355675951
C       -1.964588112  -8.280007368  -0.550454341
C        6.518956420   8.281878476  -0.620704675
C        9.263393114   4.729591239  -0.324741456
C       -9.264711801  -4.742947439  -0.267499708
C        5.645894020   3.676917715  -0.425694297
C        2.849462122   3.682823572  -0.434890677
C       -2.850770571  -3.681370729  -0.376655876
C       -5.647054461  -3.687916578  -0.387591545
C        4.948308872   4.875173491  -0.302230339
C        1.975533516   8.279287689  -0.658331977
C       -3.548115745  -4.878809609  -0.245382727
C       -4.944998901  -4.882330761  -0.254089765
C        3.551416944   4.878143260  -0.308953956
C        1.419316711   3.767292518  -0.077033901
C       -1.424196692  -3.751180126  -0.002044880
C        7.074910445   3.753058957  -0.061775471
C       -7.074963592  -3.765702192  -0.019751981
C       -5.651244856  -6.139192604   0.061786282
C        5.657522973   6.128128904   0.022177500
C       -2.839070643  -6.129882453   0.087018906
C        2.844627949   6.135105184   0.005937868
C       -1.189059571   4.172785645   0.829116730
C        1.176504758  -4.122454731   0.941050984
C       -6.994761098  -8.500967840   0.672730297
C       -1.484030139  -8.476400644   0.731068924
C        7.010868126   8.478395931   0.656469116
C        9.681892097   4.142801837   0.855415720
H       -2.209703075   4.338537905   1.190514948
H        2.193941480  -4.274419050   1.317206098
C       -9.678010127  -4.149207145   0.911061868
H       -7.525920137  -9.428334496   0.912359693
H       -0.947481414  -9.397400073   0.982952193
H        7.546385504   9.400930484   0.904912740
H       10.701997674   4.302018815   1.221246486
C        0.974506101   3.174571444   1.099416959
C       -0.994323897  -3.128086635   1.164335897
C        1.501373572   8.495952261   0.622315978
C        7.515259448   3.146703144   1.109465049
H      -10.696487678  -4.306133638   1.282353475
C       -7.509816962  -3.153310471   1.150469443
C       -0.315481074   3.376533334   1.549680473
C       -6.132177604  -6.368770127   1.343422784
C        0.291752135  -3.313043008   1.632742598
C        6.149858869   6.338560482   1.303012735
C       -2.358228429  -6.340067371   1.372203711
H        0.970465522   9.422997389   0.863741075
C        8.804478286   3.341059734   1.565289785
C        2.369242747   6.365054392   1.289680897
C       -8.797176492  -3.344161806   1.612819809
C       -6.798624159  -7.539642251   1.647830997
H        1.668987885   2.548005490   1.671496999
H       -1.697609021  -2.491058090   1.713678024
C       -1.686228166  -7.503234440   1.693109454
C        6.821057267   7.503345432   1.619121505
H        6.817840816   2.515694665   1.673063091
H       -6.809383340  -2.519714599   1.707366757
C        1.702901114   7.535258011   1.596870728
H       -5.990608078  -5.599095849   2.111238682
H        6.014173780   5.557726287   2.060552185
H       -2.503477163  -5.560497586   2.129250187
H       -0.643921303   2.905070229   2.482226052
H        0.608058765  -2.817460278   2.556953830
H        2.515713951   5.596236521   2.057422589
H        9.129383400   2.858915335   2.493609086
H       -9.117494040  -2.856960917   2.540098219
H        1.820985542   9.034734677  -1.436337759
H        6.663636440   9.049196514  -1.388891226
H        7.205844953   7.649897248   2.634177633
H        1.331874807   7.697870848   2.614580524
H       -7.174271439  -7.702176894   2.663857543
H       -1.310367086  -7.650082923   2.711413602
H       -6.664652669  -9.040903873  -1.383996848
H       -1.809783496  -9.045473413  -1.318570090

K_POINTS (automatic)
14 1 1  0 0 0
