#h-BN, input for self
#Ground state calculation (self consistent part)
 
#non-self consistent calculation
getden      1
nband      10
accesswff   3
nbandkss   60
iscf       -2
tolwfr      1.0d-8
kssform     1
kptopt      1
nshiftk     1
shiftk      0 0 0
ngkpt       2 2 1
istwfk   50*1
 
# supercell
acell  4.7163728  4.7163728 12.1758362
rprim    1.0000000000E+00  0.0000000000E+00  0.0000000000E+00
        -5.0000000000E-01  8.6602540378E-01  0.0000000000E+00
         0.0000000000E+00  0.0000000000E+00  1.0000000000E+00
 
#Definition of the atom types
ntypat 2           # There are two types of atoms
znucl 5 7        # The keyword "zatnum" refers to the atomic number of the
                  # possible type(s) of atom. The pseudopotential(s)
                  # mentioned in the "files" file must correspond
                  # to the type(s) of atom.
                          
 
#Definition of the atoms
natom 4           # There are two atoms
typat  1 2 1 2
xcart         2.3581864000E+00  1.3614995528E+00  0.0000000000E+00
             -2.3581864000E+00 -1.3614995528E+00  0.0000000000E+00
             -2.3581864000E+00 -1.3614995528E+00  6.0879181000E+00
              2.3581864000E+00  1.3614995528E+00  6.0879181000E+00

#Definition of the planewave basis set
ecut   40.0        # Minimal kinetic energy cut-off, in Hartree
symmorphi 0
 
#Definition of the SCF procedure
nstep 100          # Maximal number of SCF cycles
diemac 4.50
