 &control
 calculation  = 'scf'
 restart_mode = 'from_scratch'
 pseudo_dir   = './'
 outdir       = './'
 prefix       = 'si-hf'
 wf_collect   = .TRUE.
 verbosity = 'high'
/
&system
 ibrav           = 1
 celldm(1)       = 10.0
 nat             = 1
 ntyp            = 1
 nbnd            = 8
 ecutwfc         = 20.0
 ecutfock        = 40.0
 input_dft       = 'HF'
! exx_fraction = 
! exx_screening_factor
 exxdiv_treatment="vcut_spherical",
! ecutvcut=6.
 x_gamma_extrapolation=.false.
 force_symmorphic=.true.  
 nosym = .false.
/
&electrons
/
ATOMIC_SPECIES
 He  1.   He_ONCV_PBE-1.0.upf 
ATOMIC_POSITIONS crystal
He 0.0 0.0 0.0
K_POINTS automatic
   1 1 1 0 0 0
