 &control
    calculation = 'scf',prefix='Si', pseudo_dir = '../../../pseudo',
    wf_collect=.true.,
    verbosity ='high'
 /
 &system
    ibrav=  2, 
    celldm(1) =10.183, celldm(2) =0, celldm(3) =0, 
    nat=  2, ntyp= 1, ecutwfc = 15, nbnd = 50,
     
 /
 &electrons
    diago_full_acc=.TRUE.,
    conv_thr = 1.0d-8
 /
ATOMIC_SPECIES
 Si 28.086 Si.vbc.UPF
ATOMIC_POSITIONS {alat}
 Si 0 0  0 
 Si 0.25 0.25  0.25 
K_POINTS {automatic}
  6 6 6 1 1 1
