bn_dvscf
&inputph
  verbosity='high'
  tr2_ph=1.0d-12,
  prefix='bn',
  fildvscf = 'bn-dvscf',
  fildyn='bn.dyn'
  outdir='./',
  electron_phonon = 'yambo',
  epsil = .false.
  trans = .false.
  ldisp = .false. 
  qplot = .true.  
/ 
3
0.000000000  0.000000000  0.000000000 1
0.000000000  -0.384900212  0.000000000 1
-0.333333373  -0.577350378  0.000000000 1
