 &control
    calculation = 'scf'
    restart_mode='from_scratch',
    prefix='bn',
    pseudo_dir = '../../psps',
    outdir='./'
    wf_collect=.false.
    verbosity='high'
 /
 &system    
    ibrav=  4 
    celldm(1) = 4.7167563456 
    celldm(3) = 6.3603030985 
    nat=  2
    ntyp= 2
    ecutwfc = 50.0 
    assume_isolated='2D'
    force_symmorphic=.true.
 /
 &electrons
    diagonalization='cg'
    mixing_mode = 'plain'
    mixing_beta = 0.7 
    conv_thr =  1.0d-15,
 /
ATOMIC_SPECIES 
 B 10.811  B.pz-vbc.UPF     
 N 14.006  N.pz-vbc.UPF 
ATOMIC_POSITIONS crystal 
 B      6.6666666666E-01  3.3333333333E-01  0.0000000000E+00
 N     -6.6666666666E-01 -3.3333333333E-01  0.0000000000E+00
K_POINTS automatic
3 3 1 0 0 0
