bn_dvscf
&inputph
  tr2_ph=1.0d-16,
  verbosity='high'
  prefix='bn',
  fildvscf = 'bn-dvscf',
  electron_phonon = 'dvscf',
  fildyn='bn.dyn'
  epsil=.true.
  trans=.true.
  ldisp = .false. 
  qplot = .true. 
/ 
3
0.000000000  0.000000000  0.000000000 1
0.000000000  -0.384900212  0.000000000 1
-0.333333373  -0.577350378  0.000000000 1
