&control
              prefix = 'CrI3_kx2_e60'
          pseudo_dir = '../../psps/'
           verbosity = 'high'
          wf_collect = .true.
/&end
&system
           celldm(1) = 12.6872010252
           celldm(3) = 3.1527836534275644
             ecutwfc = 60
               ibrav = 4
            lspinorb = .true.
                 nat = 8
            noncolin = .true.
                ntyp = 2
starting_magnetization(1) = 1
starting_magnetization(2) = 0
/&end
&electrons
            conv_thr = 1e-08
/&end


ATOMIC_SPECIES
  Cr    51.99               Cr.upf
   I    126.9                I.upf
ATOMIC_POSITIONS { crystal }
 Cr   0.6666666670   0.3333333330   0.0000000000
 Cr   0.3333333330   0.6666666670   0.0000000000
  I   0.6508193310   0.6508193310  -0.0722327590
  I   0.0000000000   0.3491806690  -0.0722327590
  I   0.3491806690   0.0000000000  -0.0722327590
  I   0.3491806690   0.3491806690   0.0722327590
  I   0.6508193310   0.0000000000   0.0722327590
  I   0.0000000000   0.6508193310   0.0722327590
K_POINTS { automatic }
 2 2 1  0  0  0
