 &control
    calculation = 'nscf'
    prefix='bn',
    pseudo_dir = './',
    outdir='./'
    wf_collect=.true.
    verbosity='high'
 /
 &system    
    ibrav=  4 
    celldm(1) = 4.7177372151 
    celldm(3) = 4.2393204810 
    nat=  2
    ntyp= 2
    ecutwfc = 50.0 
    nbnd=20
    force_symmorphic=.true.
 /
 &electrons
    diago_thr_init =  1.0d-6
 /
ATOMIC_SPECIES 
 B 1.0  B.pz-vbc.UPF     
 N 1.0  N.pz-vbc.UPF 
ATOMIC_POSITIONS 
 B     6.6666666666E-01  3.3333333333E-01  0.0000000000E+00
 N     -6.6666666666E-01 -3.3333333333E-01  0.0000000000E+00
K_POINTS {automatic}
 8 8 1 0 0 0 
