Si phonons
  epsil=.FALSE.,
 &inputph
  prefix='Si',
  tr2_ph=1.0d-10,
  amass(1)=28.086,
  fildyn='Si.dyn',
  fildvscf='dvscf',
  iverbosity = 1,
  electron_phonon="yambo"
  trans=.TRUE.,
  ldisp=.TRUE.,
  nq1=2, nq2=2, nq3=2
 /

