&CONTROL
 calculation = 'scf'
 prefix='CH4_3dist'
 title='CH4_3dist'
 pseudo_dir = '../../psp'
 outdir='./'
 tprnfor = .true.
/
&SYSTEM
 ibrav=8
 a=15.0000000000
 b=15.0000000000
 c=15.0000000000
 nat=5
 ntyp=2   !! H,C
 ecutwfc=40 !! 20Ha
 degauss=0.000735 !! 0.01eV
 occupations ='smearing'
 smearing  = 'm-p'
 nbnd=10
/
&ELECTRONS
electron_maxstep = 100
conv_thr = 1.d-6  !! Ry
/
ATOMIC_SPECIES
H 0 H.pbe-mt_fhi.UPF
C 0 C.pbe-mt_fhi.UPF
ATOMIC_POSITIONS angstrom
        C    7.5000000000E+00    7.5000000000E+00    7.5000000000E+00
        H    8.2425000000E+00    8.2425000000E+00    8.2425000000E+00
        H    6.8925000000E+00    6.8925000000E+00    8.1075000000E+00
        H    8.3100000000E+00    6.6900000000E+00    6.6900000000E+00
        H    6.8250000000E+00    8.1750000000E+00    6.8250000000E+00
K_POINTS  gamma 
