 &control
    calculation = 'scf',
    prefix='Si',
    pseudo_dir = '.',
    wf_collect=.true.,
    verbosity ='high'
 /
 &system
    ibrav=  2,
    celldm(1) =10.183, celldm(2) =0, celldm(3) =0,
    nat=  2, ntyp= 1, ecutwfc = 15, nbnd = 5,
    force_symmorphic=.TRUE.
 /
 &electrons
    diago_full_acc=.TRUE.,
    conv_thr = 1.0d-10
 /
ATOMIC_SPECIES
 Si 28.086 si.vbc.UPF
ATOMIC_POSITIONS (alat)
 Si 0.0000000000 0.0000000000  0.0000000000
 Si 0.2500000000 0.2500000000  0.2500000000
K_POINTS (automatic)
  2 2 2 0 0 0
