# Crystalline aluminum : computation of the total energy
#
# Convergence with respect to k points

ndtset 2
accesswff 3

#Definition of occupation numbers
occopt 4
chkprim 0

tsmear  0.01

#Definition of the k-point grids
kptopt 1          # Option for the automatic generation of k points, taking
                  # into account the symmetry
kptrlatt 8   0   0 0  8   0  0 0 1
nshift 1
shiftk 0 0 0 

#Optimization of the lattice parameters
dilatmx 1.05
ecutsm  0.5
ixc 7

#Definition of the atom types
ntypat 1           # There is only one type of atom
znucl 13         # The keyword "znucl" refers to the atomic number of the 
                  # possible type(s) of atom. The pseudopotential(s) 
                  # mentioned in the "files" file must correspond
                  # to the type(s) of atom. Here, the only type is Aluminum.
                         

#Definition of the atoms
#natom 1           # There is only one atom per cell
#type 1            # They both are of type 1, that is, Aluminum.
#xred              # This keyword indicate that the location of the atoms
#                  # will follow, one triplet of number for each atom
#   0.0  0.0  0.0     # Triplet giving the REDUCED coordinate of atom 1.
natom 11
typat 11*1

xcart        -1.3272427601E-10  3.0651281645E+00 -2.1670484574E+01
              2.6544788564E+00  1.5325640821E+00 -1.7298078871E+01
             -1.3272424851E-10 -2.2988514182E-10 -1.2983059095E+01
             -1.3272427601E-10  3.0651281645E+00 -8.6440933841E+00
              2.6544788564E+00  1.5325640821E+00 -4.3151771182E+00
             -1.3272424851E-10 -2.2988514182E-10  0.0000000000E+00
             -1.3272427601E-10  3.0651281645E+00  4.3151771182E+00
              2.6544788564E+00  1.5325640821E+00  8.6440933841E+00
             -1.3272424851E-10 -2.2988514182E-10  1.2983059095E+01
             -1.3272427601E-10  3.0651281645E+00  1.7298078871E+01
              2.6544788564E+00  1.5325640821E+00  2.1670484574E+01

natfix 1
iatfix 6

#Definition of the unit cell
#acell 3*7.60           # This is equivalent to   7.60 7.60 7.60
#acell 7.508/1.414213562 7.508/1.414213562 7.508*1.732050808
# layer = 7.508/sqrt(3) = 4.334745821
#acell 5.308957713 5.308957713 69.35593314 # 16 layers
acell 5.308957713 5.308957713 86.69491642 # 20 layers
#acell 5.308957713 5.308957713 108.368645526892 # 25 layers
#angdeg 90 90 120
rprim    1.0000000000E+00  0.0000000000E+00  0.0000000000E+00
             -5.0000000000E-01  8.6602540378E-01  0.0000000000E+00
              0.0000000000E+00  0.0000000000E+00  1.0000000000E+00

#Definition of the planewave basis set
ecut 6.5         # Maximal kinetic energy cut-off, in Hartree

#Definition of the SCF procedure
nstep 100          # Maximal number of SCF cycles
#toldfe 1.0d-6     # Will stop when, twice in a row, the difference 
                  # between two consecutive evaluations of total energy 
                  # differ by less than toldfe (in Hartree) 

nband 31
tolmxf 2.5d-5
toldff 2.5d-6
diemix 0.75
diemac 4.0
prt1dm 1
prtvol 3
prtden 1
#prtwf 1
## Step 2: obtain the Kohn-Sham band structure
getden2    1                  # Read electronic density from step 1
iscf2     -2                  # Non self-consistent calculation
tolwfr2    1.0d-16            # Tolerance on wavefunctions
nband2    50                  # Number of bands for the system
nbandkss2 50                  # Number of bands to output to the KSS file
kssform2   3                  # Format of the KSS file
kptopt2    1                  # Automatic generation of k-points
kptrlatt2 8   0   0 0  8   0  0 0 1
nshift2 1
shiftk2 0 0 0 
symmorphi2 0                  # Disallow non-symmorphic operations (required)
istwfk2    10*1               # Wavefunction storage mode for each k-point
